
# read data from object into file
read_data          ${structure}
read_data          test_structure.in
  orthogonal box = (0 0 0) to (1.212 1.212 1.212)
  1 by 1 by 1 MPI processor grid
  reading atoms ...
  15 atoms
  scanning bonds ...
  1 = max bonds/atom
  reading bonds ...
  12 bonds
  2 = max # of 1-2 neighbors
  2 = max # of 1-3 neighbors
  2 = max # of 1-4 neighbors
  4 = max # of special neighbors
  special bonds CPU = 4.91142e-05 secs
  read_data CPU = 0.00139689 secs

# define interactions
neighbor      0.4 bin
neigh_modify  every 10 one 10000
comm_modify   mode single cutoff 1.9 vel yes
pair_style    lj/cut 1.5
pair_coeff    * * 0.05 0.3
bond_style    fene
special_bonds fene
  2 = max # of 1-2 neighbors
  4 = max # of special neighbors
  special bonds CPU = 2.00272e-05 secs
bond_coeff    1 30.0 3.5 0.05 0.5

#-----------------------------------------------------------------------------------
# EQUILIBRATION STAGE 1
# Description: {description}
#-----------------------------------------------------------------------------------
velocity        all create 0.05 1231
fix             1 all nve/limit 0.3
fix             2 all langevin 0.05 0.05 10.0 29340
thermo_style    custom step temp press
thermo          100
run             5000
Neighbor list info ...
  update every 10 steps, delay 10 steps, check yes
  max neighbors/atom: 10000, page size: 100000
  master list distance cutoff = 1.9
  ghost atom cutoff = 1.9
  binsize = 0.95, bins = 2 2 2
  1 neighbor lists, perpetual/occasional/extra = 1 0 0
  (1) pair lj/cut, perpetual
      attributes: half, newton on
      pair build: half/bin/newton
      stencil: half/bin/3d/newton
      bin: standard
WARNING: Inconsistent image flags (src/domain.cpp:780)
WARNING: Bond/angle/dihedral extent > half of periodic box length (src/domain.cpp:901)
Per MPI rank memory allocation (min/avg/max) = 3.954 | 3.954 | 3.954 Mbytes
Step Temp Press 
       0         0.05   -21.832629 
     100   0.33106956    3.9914326 
     200   0.50881044    5.0421993 
     300   0.39689877     5.911577 
     400   0.31531847    -7.796575 
     500   0.44777594   -3.0762341 
     600    0.2891403   -6.1351402 
     700   0.40775039    2.4338762 
     800    0.3222909   -3.8235078 
     900   0.29460403   -3.0910452 
    1000   0.24807419    8.4882667 
    1100   0.37438728    2.6527595 
    1200   0.26169751   -7.4455866 
    1300   0.34520156    4.1234367 
    1400   0.33512234  -0.41586353 
    1500    0.2615024   -3.1702739 
    1600   0.29214845    2.0362871 
    1700   0.25542218    3.6612824 
    1800   0.25939701   -3.5217244 
    1900   0.27097282   0.66339727 
    2000   0.20496602    6.2422498 
    2100   0.17509962   -1.7731869 
    2200   0.19044605    2.8743255 
    2300   0.17918893    2.7194909 
    2400   0.16870637    1.2151814 
    2500   0.14603861   -1.2152928 
    2600   0.12077039    2.2163098 
    2700   0.12810939     -1.14465 
    2800   0.11462561   0.37223444 
    2900   0.13106965  -0.53720151 
    3000   0.10927644    1.5920391 
    3100   0.10833604    1.0250705 
    3200   0.10043024   -1.1926511 
    3300  0.080990006  -0.21053027 
    3400  0.090243529  -0.60980444 
    3500  0.076474132  -0.28661325 
    3600   0.10498993   -1.7214755 
    3700  0.092145648   -1.1430572 
    3800  0.087980362  -0.96081779 
    3900  0.096592767  -0.76768081 
    4000  0.079963686   -1.2261618 
    4100  0.070372729   0.55356928 
    4200  0.059225015  -0.20698353 
    4300  0.077715436    3.0800712 
    4400   0.07419053   -1.4396392 
    4500  0.047740794   -1.0425772 
    4600  0.068546883   -1.7134569 
    4700   0.06880106   -3.4694816 
    4800  0.047737139   0.48534754 
    4900   0.04816879   0.61132032 
    5000  0.072090553  -0.85584021 
Loop time of 0.143421 on 1 procs for 5000 steps with 15 atoms

Performance: 15060537.809 tau/day, 34862.356 timesteps/s
99.7% CPU use with 1 MPI tasks x 1 OpenMP threads

MPI task timing breakdown:
Section |  min time  |  avg time  |  max time  |%varavg| %total
---------------------------------------------------------------
Pair    | 0.072641   | 0.072641   | 0.072641   |   0.0 | 50.65
Bond    | 0.0014052  | 0.0014052  | 0.0014052  |   0.0 |  0.98
Neigh   | 0.0076528  | 0.0076528  | 0.0076528  |   0.0 |  5.34
Comm    | 0.051347   | 0.051347   | 0.051347   |   0.0 | 35.80
Output  | 0.00032663 | 0.00032663 | 0.00032663 |   0.0 |  0.23
Modify  | 0.00547    | 0.00547    | 0.00547    |   0.0 |  3.81
Other   |            | 0.004579   |            |       |  3.19

Nlocal:    15 ave 15 max 15 min
Histogram: 1 0 0 0 0 0 0 0 0 0
Nghost:    1126 ave 1126 max 1126 min
Histogram: 1 0 0 0 0 0 0 0 0 0
Neighs:    1838 ave 1838 max 1838 min
Histogram: 1 0 0 0 0 0 0 0 0 0

Total # of neighbors = 1838
Ave neighs/atom = 122.533
Ave special neighs/atom = 1.6
Neighbor list builds = 105
Dangerous builds = 0
unfix 1
unfix 2
write_restart   restart.test_lattice.in.polylattice1
Total wall time: 0:00:00
