
# read data from object into file
read_data          ${structure}
read_data          test_structure.in
  orthogonal box = (0 0 0) to (50 50 50)
  1 by 1 by 1 MPI processor grid
  reading atoms ...
  500 atoms
  scanning bonds ...
  1 = max bonds/atom
  reading bonds ...
  499 bonds
  2 = max # of 1-2 neighbors
  2 = max # of 1-3 neighbors
  4 = max # of 1-4 neighbors
  6 = max # of special neighbors
  special bonds CPU = 0.000144005 secs
  read_data CPU = 0.00136614 secs

# define interactions
neighbor      1.0 multi
neigh_modify  every 10 one 1000
pair_style    lj/cut 1.5
pair_coeff    1 1 0.2 1.0
pair_style    lj/cut 1.5
pair_coeff    1 2 0.2 1.0
pair_style    lj/cut 1.5
pair_coeff    2 2 1.0 1.0

bond_style    fene
special_bonds fene
  2 = max # of 1-2 neighbors
  6 = max # of special neighbors
  special bonds CPU = 5.4121e-05 secs
bond_coeff    1 30.0 1.5 1.0 1.0
compute         1 all stress/atom NULL

#---------------------------------------------------------------------------------------------------
# EQUILIBRATION STAGE 1
# Description: {description}
#---------------------------------------------------------------------------------------------------
velocity        all create 1.0 38985
fix             1 all nve/limit 1.5
fix             2 all langevin 1.0 1.0 10.0 38985
thermo_style    custom step temp press pe ke
thermo          1000
run             10000
Neighbor list info ...
  update every 10 steps, delay 10 steps, check yes
  max neighbors/atom: 1000, page size: 100000
  master list distance cutoff = 2.5
  ghost atom cutoff = 2.5
  binsize = 1.25, bins = 40 40 40
  1 neighbor lists, perpetual/occasional/extra = 1 0 0
  (1) pair lj/cut, perpetual
      attributes: half, newton on
      pair build: half/multi/newton
      stencil: half/multi/3d/newton
      bin: standard
WARNING: Inconsistent image flags (src/domain.cpp:780)
Per MPI rank memory allocation (min/avg/max) = 5.946 | 5.946 | 5.946 Mbytes
Step Temp Press PotEng KinEng 
       0            1  -0.11084452    27.515607        1.497 
    1000    2.5838056 0.0025527561    21.687847     3.867957 
    2000    1.8376267 -0.00037896014    21.069692    2.7509272 
    3000    1.4336712  0.001762905    20.789102    2.1462058 
    4000    1.1934342 -0.0010303299    20.640102     1.786571 
    5000    1.1267716 0.0012357126    20.463566     1.686777 
    6000    1.0303444 0.00067179725    20.503178    1.5424256 
    7000    1.1082193 0.00028317309    20.430693    1.6590043 
    8000    1.0124325 -0.004840982    20.375567    1.5156115 
    9000   0.95747343 -0.0011471551    20.442191    1.4333377 
   10000    1.0030717 0.0013184357    20.333827    1.5015983 
Loop time of 0.440403 on 1 procs for 10000 steps with 500 atoms

Performance: 9809197.828 tau/day, 22706.476 timesteps/s
100.0% CPU use with 1 MPI tasks x 1 OpenMP threads

MPI task timing breakdown:
Section |  min time  |  avg time  |  max time  |%varavg| %total
---------------------------------------------------------------
Pair    | 0.11121    | 0.11121    | 0.11121    |   0.0 | 25.25
Bond    | 0.056839   | 0.056839   | 0.056839   |   0.0 | 12.91
Neigh   | 0.064058   | 0.064058   | 0.064058   |   0.0 | 14.55
Comm    | 0.0071938  | 0.0071938  | 0.0071938  |   0.0 |  1.63
Output  | 0.00012493 | 0.00012493 | 0.00012493 |   0.0 |  0.03
Modify  | 0.19565    | 0.19565    | 0.19565    |   0.0 | 44.43
Other   |            | 0.005322   |            |       |  1.21

Nlocal:    500 ave 500 max 500 min
Histogram: 1 0 0 0 0 0 0 0 0 0
Nghost:    60 ave 60 max 60 min
Histogram: 1 0 0 0 0 0 0 0 0 0
Neighs:    2183 ave 2183 max 2183 min
Histogram: 1 0 0 0 0 0 0 0 0 0

Total # of neighbors = 2183
Ave neighs/atom = 4.366
Ave special neighs/atom = 1.996
Neighbor list builds = 414
Dangerous builds = 5
unfix 1
unfix 2
write_restart   restart.test_settings.in.polylattice1

Please see the log.cite file for references relevant to this simulation

Total wall time: 0:00:00
