
# read data from object into file
read_data          ${structure}
read_data          test_structure2.in
  orthogonal box = (0 0 0) to (50 50 50)
  1 by 1 by 1 MPI processor grid
  reading atoms ...
  160000 atoms
  scanning bonds ...
  1 = max bonds/atom
  reading bonds ...
  159800 bonds
  2 = max # of 1-2 neighbors
  2 = max # of 1-3 neighbors
  4 = max # of 1-4 neighbors
  6 = max # of special neighbors
  special bonds CPU = 0.0372429 secs
  read_data CPU = 0.202213 secs

# define interactions
neighbor      2.0 multi
neigh_modify  every 10 one 10000
pair_style    lj/cut 1.5
pair_coeff    1 1 0.2 0.01
pair_style    lj/cut 1.5
pair_coeff    1 2 0.2 0.1
pair_style    lj/cut 1.5
pair_coeff    2 2 1.0 0.01

bond_style    fene
special_bonds fene
  2 = max # of 1-2 neighbors
  6 = max # of special neighbors
  special bonds CPU = 0.0130432 secs
bond_coeff    1 30 10.0 1.0 1.0
compute         1 all stress/atom NULL

#---------------------------------------------------------------------------------------------------------
# DEFORMATION STAGE
#---------------------------------------------------------------------------------------------------------
run             0
WARNING: No fixes defined, atoms won't move (src/verlet.cpp:52)
Neighbor list info ...
  update every 10 steps, delay 10 steps, check yes
  max neighbors/atom: 10000, page size: 100000
  master list distance cutoff = 3.5
  ghost atom cutoff = 3.5
  binsize = 1.75, bins = 29 29 29
  1 neighbor lists, perpetual/occasional/extra = 1 0 0
  (1) pair lj/cut, perpetual
      attributes: half, newton on
      pair build: half/multi/newton
      stencil: half/multi/3d/newton
      bin: standard
WARNING: Inconsistent image flags (src/domain.cpp:780)
Per MPI rank memory allocation (min/avg/max) = 214.5 | 214.5 | 214.5 Mbytes
Step Temp E_pair E_mol TotEng Press 
       0            0 -0.000274947    18.990951    18.990676      -16.306 
Loop time of 1.90735e-06 on 1 procs for 0 steps with 160000 atoms

157.3% CPU use with 1 MPI tasks x 1 OpenMP threads

MPI task timing breakdown:
Section |  min time  |  avg time  |  max time  |%varavg| %total
---------------------------------------------------------------
Pair    | 0          | 0          | 0          |   0.0 |  0.00
Bond    | 0          | 0          | 0          |   0.0 |  0.00
Neigh   | 0          | 0          | 0          |   0.0 |  0.00
Comm    | 0          | 0          | 0          |   0.0 |  0.00
Output  | 0          | 0          | 0          |   0.0 |  0.00
Modify  | 0          | 0          | 0          |   0.0 |  0.00
Other   |            | 1.907e-06  |            |       |100.00

Nlocal:    160000 ave 160000 max 160000 min
Histogram: 1 0 0 0 0 0 0 0 0 0
Nghost:    76567 ave 76567 max 76567 min
Histogram: 1 0 0 0 0 0 0 0 0 0
Neighs:    3.00169e+07 ave 3.00169e+07 max 3.00169e+07 min
Histogram: 1 0 0 0 0 0 0 0 0 0

Total # of neighbors = 30016901
Ave neighs/atom = 187.606
Ave special neighs/atom = 1.9975
Neighbor list builds = 0
Dangerous builds = 0
dump            1 all cfg 100 dump.test_settings.in_*.cfg mass type xs ys zs fx fy fz c_1[1] c_1[2] c_1[3]
fix		3 all deform 1 x trate 0.02 y trate 0 z trate 0 units box remap x
thermo_style    custom step temp lx ly lz pxx pyy pzz
thermo          100
run             100000
WARNING: Inconsistent image flags (src/domain.cpp:780)
Per MPI rank memory allocation (min/avg/max) = 256.9 | 256.9 | 256.9 Mbytes
Step Temp Lx Ly Lz Pxx Pyy Pzz 
       0            0           50           50           50   -16.315914   -16.260037    -16.34205 
     100            0    50.502508           50           50   -16.482472   -16.102018   -16.183235 
     200            0    51.010067           50           50   -16.650732   -15.942734   -16.023148 
     300            0    51.522727           50           50   -16.820764   -15.784987   -15.864606 
     400            0    52.040539           50           50   -16.992588     -15.6288   -15.707633 
     500            0    52.563555           50           50   -17.166225   -15.474169   -15.552221 
     600            0    53.091827           50           50   -17.341696   -15.321079   -15.398361 
     700            0    53.625409           50           50   -17.519023    -15.16952   -15.246037 
     800            0    54.164353           50           50   -17.698226   -15.019475   -15.095235 
     900            0    54.708714           50           50   -17.879329   -14.870931   -14.945943 
    1000            0    55.258546           50           50   -18.062352   -14.723874   -14.798144 
    1100            0    55.813904           50           50   -18.247318   -14.578288   -14.651824 
    1200            0    56.374843           50           50   -18.434251    -14.43416   -14.506969 
    1300            0    56.941419           50           50   -18.623173   -14.291475   -14.363565 
    1400            0     57.51369           50           50   -18.814107    -14.15022   -14.221597 
    1500            0    58.091712           50           50   -19.007078   -14.010379   -14.081052 
    1600            0    58.675544           50           50    -19.20211    -13.87194   -13.941914 
    1700            0    59.265243           50           50   -19.399226   -13.734888   -13.804171 
    1800            0    59.860868           50           50   -19.598453    -13.59921   -13.667809 
    1900            0     60.46248           50           50   -19.799814   -13.464892   -13.532814 
    2000            0    61.070138           50           50   -20.003337   -13.331921   -13.399172 
    2100            0    61.683903           50           50   -20.209046   -13.200283   -13.266871 
    2200            0    62.303837           50           50   -20.416968   -13.069966   -13.135896 
    2300            0        62.93           50           50    -20.62713   -12.940956   -13.006236 
    2400            0    63.562458           50           50   -20.839559   -12.813241   -12.877876 
    2500            0    64.201271           50           50   -21.054283   -12.686807   -12.750805 
    2600            0    64.846504           50           50    -21.27133   -12.561642   -12.625009 
    2700            0    65.498223           50           50   -21.490728   -12.437734   -12.500477 
    2800            0    66.156491           50           50   -21.712507   -12.315071   -12.377194 
    2900            0    66.821374           50           50   -21.936696   -12.193639    -12.25515 
    3000            0     67.49294           50           50   -22.163324   -12.073427   -12.134333 
    3100            0    68.171256           50           50   -22.392422   -11.954423   -12.014729 
    3200            0    68.856388           50           50   -22.624022   -11.836615   -11.896327 
    3300            0    69.548406           50           50   -22.858154   -11.719991   -11.779115 
    3400            0     70.24738           50           50    -23.09485    -11.60454   -11.663082 
    3500            0    70.953377           50           50   -23.334143    -11.49025   -11.548215 
    3600            0    71.666471           50           50   -23.576066   -11.377109   -11.434504 
    3700            0    72.386731           50           50   -23.820652   -11.265107   -11.321937 
    3800            0    73.114229           50           50   -24.067936   -11.154232   -11.210503 
    3900            0     73.84904           50           50   -24.317952   -11.044472   -11.100191 
    4000            0    74.591235           50           50   -24.570735   -10.935818    -10.99099 
    4100            0    75.340889           50           50   -24.826322   -10.828259   -10.882888 
    4200            0    76.098078           50           50   -25.084749   -10.721783   -10.775875 
    4300            0    76.862876           50           50   -25.346052   -10.616379   -10.669941 
    4400            0    77.635361           50           50   -25.610271   -10.512039   -10.565074 
    4500            0    78.415609           50           50   -25.877444    -10.40875   -10.461265 
    4600            0    79.203699           50           50   -26.147609   -10.306502   -10.358503 
    4700            0     79.99971           50           50   -26.420806   -10.205287   -10.256777 
    4800            0     80.80372           50           50   -26.697077   -10.105092   -10.156078 
    4900            0    81.615811           50           50   -26.976463   -10.005909   -10.056395 
    5000            0    82.436064           50           50   -27.259005   -9.9077276   -9.9577189 
    5100            0     83.26456           50           50   -27.544747   -9.8105377   -9.8600394 
    5200            0    84.101382           50           50   -27.833733   -9.7143298   -9.7633469 
    5300            0    84.946615           50           50   -28.126007   -9.6190943   -9.6676317 
    5400            0    85.800343           50           50   -28.421614   -9.5248217   -9.5728843 
    5500            0    86.662651           50           50   -28.720601   -9.4315026   -9.4790952 
    5600            0    87.533625           50           50   -29.023015   -9.3391277   -9.3862551 
    5700            0    88.413353           50           50   -29.328904   -9.2476877   -9.2943547 
    5800            0    89.301922           50           50   -29.638317   -9.1571737   -9.2033849 
    5900            0    90.199421           50           50   -29.951305   -9.0675764   -9.1133365 
    6000            0     91.10594           50           50   -30.267917   -8.9788872   -9.0242007 
    6100            0     92.02157           50           50   -30.588207    -8.891097   -8.9359685 
    6200            0    92.946402           50           50   -30.912228   -8.8041971   -8.8486312 
    6300            0    93.880529           50           50   -31.240032    -8.718179     -8.76218 
    6400            0    94.824044           50           50   -31.571677    -8.633034   -8.6766064 
    6500            0    95.777041           50           50   -31.907218   -8.5487536   -8.5919018 
    6600            0    96.739617           50           50   -32.246713   -8.4653295   -8.5080579 
    6700            0    97.711866           50           50   -32.590221   -8.3827534   -8.4250662 
    6800            0    98.693887           50           50   -32.937801   -8.3010171   -8.3429185 
    6900            0    99.685777           50           50   -33.289516   -8.2201124   -8.2616066 
    7000            0    100.68764           50           50   -33.645427   -8.1400313   -8.1811225 
    7100            0    101.69956           50           50     -34.0056   -8.0607658   -8.1014582 
    7200            0    102.72166           50           50   -34.370099    -7.982308   -8.0226057 
    7300            0    103.75403           50           50   -34.738991   -7.9046503   -7.9445572 
    7400            0    104.79678           50           50   -35.112345   -7.8277847   -7.8673049 
    7500            0       105.85           50           50   -35.490231   -7.7517038   -7.7908413 
    7600            0    106.91381           50           50    -35.87272     