
# read data from object into file
read_data          ${structure}
read_data          int_structure.in
  orthogonal box = (0 0 0) to (20 20 20)
  1 by 1 by 1 MPI processor grid
  reading atoms ...
  100 atoms
  scanning bonds ...
  1 = max bonds/atom
  reading bonds ...
  99 bonds
  2 = max # of 1-2 neighbors
  2 = max # of 1-3 neighbors
  4 = max # of 1-4 neighbors
  6 = max # of special neighbors
  special bonds CPU = 8.2016e-05 secs
  read_data CPU = 0.00117207 secs

# define interactions
neighbor      4.0 multi
neigh_modify  every 10 one 10000
pair_style    lj/cut 1.5
pair_coeff    1 1 0.2 0.01
pair_style    lj/cut 1.5
pair_coeff    1 2 0.2 0.01
pair_style    lj/cut 1.5
pair_coeff    2 2 0.5 0.01

bond_style    fene
special_bonds fene
  2 = max # of 1-2 neighbors
  6 = max # of special neighbors
  special bonds CPU = 0.000133038 secs
bond_coeff    1 30 1.5 1.0 1.0
compute         1 all stress/atom NULL

#---------------------------------------------------------------------------------------------------
# POTENTIAL MODIFICATION STAGE
#---------------------------------------------------------------------------------------------------
pair_style    lj/cut/soft 1.0 1.0 1.5
pair_coeff    1 2 0.2 0.059500000000000004 0.1
pair_style    lj/cut/soft 1.0 1.0 1.5
pair_coeff    1 1 0.2 0.059500000000000004 0.1
pair_style    lj/cut/soft 1.0 1.0 1.5
pair_coeff    2 2 0.5 0.059500000000000004 0.1
velocity        all create 1.0 52690
fix             1 all nve/limit 1.5
fix             2 all langevin 1.0 1.0 10 52690
thermo_style    custom step temp press pe ke
thermo          100
run             100
Neighbor list info ...
  update every 10 steps, delay 10 steps, check yes
  max neighbors/atom: 10000, page size: 100000
  master list distance cutoff = 5.5
  ghost atom cutoff = 5.5
  binsize = 2.75, bins = 8 8 8
  1 neighbor lists, perpetual/occasional/extra = 1 0 0
  (1) pair lj/cut/soft, perpetual
      attributes: half, newton on
      pair build: half/multi/newton
      stencil: half/multi/3d/newton
      bin: standard
Per MPI rank memory allocation (min/avg/max) = 5.512 | 5.512 | 5.512 Mbytes
Step Temp Press PotEng KinEng 
       0            1  -0.34174293     27.41905        1.485 
     100     3.498522  0.039356264    23.345106    5.1953052 
Loop time of 0.00179195 on 1 procs for 100 steps with 100 atoms

Performance: 24107761.150 tau/day, 55805.003 timesteps/s
99.8% CPU use with 1 MPI tasks x 1 OpenMP threads

MPI task timing breakdown:
Section |  min time  |  avg time  |  max time  |%varavg| %total
---------------------------------------------------------------
Pair    | 0.00084329 | 0.00084329 | 0.00084329 |   0.0 | 47.06
Bond    | 0.00017548 | 0.00017548 | 0.00017548 |   0.0 |  9.79
Neigh   | 6.4135e-05 | 6.4135e-05 | 6.4135e-05 |   0.0 |  3.58
Comm    | 8.2493e-05 | 8.2493e-05 | 8.2493e-05 |   0.0 |  4.60
Output  | 8.1062e-06 | 8.1062e-06 | 8.1062e-06 |   0.0 |  0.45
Modify  | 0.00058293 | 0.00058293 | 0.00058293 |   0.0 | 32.53
Other   |            | 3.552e-05  |            |       |  1.98

Nlocal:    100 ave 100 max 100 min
Histogram: 1 0 0 0 0 0 0 0 0 0
Nghost:    173 ave 173 max 173 min
Histogram: 1 0 0 0 0 0 0 0 0 0
Neighs:    1764 ave 1764 max 1764 min
Histogram: 1 0 0 0 0 0 0 0 0 0

Total # of neighbors = 1764
Ave neighs/atom = 17.64
Ave special neighs/atom = 1.98
Neighbor list builds = 1
Dangerous builds = 0
unfix 1
unfix 2

pair_style    lj/cut/soft 1.0 1.0 1.5
pair_coeff    1 2 0.2 0.10900000000000001 0.1
pair_style    lj/cut/soft 1.0 1.0 1.5
pair_coeff    1 1 0.2 0.10900000000000001 0.1
pair_style    lj/cut/soft 1.0 1.0 1.5
pair_coeff    2 2 0.5 0.10900000000000001 0.1
velocity        all create 1.0 52690
fix             1 all nve/limit 1.5
fix             2 all langevin 1.0 1.0 10 52690
thermo_style    custom step temp press pe ke
thermo          100
run             100
Per MPI rank memory allocation (min/avg/max) = 5.512 | 5.512 | 5.512 Mbytes
Step Temp Press PotEng KinEng 
     100            1 0.0084365559    23.345086        1.485 
     200    2.0491323  0.029459766    21.578783    3.0429615 
Loop time of 0.00172901 on 1 procs for 100 steps with 100 atoms

Performance: 24985374.076 tau/day, 57836.514 timesteps/s
99.5% CPU use with 1 MPI tasks x 1 OpenMP threads

MPI task timing breakdown:
Section |  min time  |  avg time  |  max time  |%varavg| %total
---------------------------------------------------------------
Pair    | 0.00084734 | 0.00084734 | 0.00084734 |   0.0 | 49.01
Bond    | 0.00016785 | 0.00016785 | 0.00016785 |   0.0 |  9.71
Neigh   | 0          | 0          | 0          |   0.0 |  0.00
Comm    | 7.7248e-05 | 7.7248e-05 | 7.7248e-05 |   0.0 |  4.47
Output  | 1.3113e-05 | 1.3113e-05 | 1.3113e-05 |   0.0 |  0.76
Modify  | 0.00059271 | 0.00059271 | 0.00059271 |   0.0 | 34.28
Other   |            | 3.076e-05  |            |       |  1.78

Nlocal:    100 ave 100 max 100 min
Histogram: 1 0 0 0 0 0 0 0 0 0
Nghost:    173 ave 173 max 173 min
Histogram: 1 0 0 0 0 0 0 0 0 0
Neighs:    1764 ave 1764 max 1764 min
Histogram: 1 0 0 0 0 0 0 0 0 0

Total # of neighbors = 1764
Ave neighs/atom = 17.64
Ave special neighs/atom = 1.98
Neighbor list builds = 0
Dangerous builds = 0
unfix 1
unfix 2

pair_style    lj/cut/soft 1.0 1.0 1.5
pair_coeff    1 2 0.2 0.15850000000000003 0.1
pair_style    lj/cut/soft 1.0 1.0 1.5
pair_coeff    1 1 0.2 0.15850000000000003 0.1
pair_style    lj/cut/soft 1.0 1.0 1.5
pair_coeff    2 2 0.5 0.15850000000000003 0.1
velocity        all create 1.0 52690
fix             1 all nve/limit 1.5
fix             2 all langevin 1.0 1.0 10 52690
thermo_style    custom step temp press pe ke
thermo          100
run             100
Per MPI rank memory allocation (min/avg/max) = 5.512 | 5.512 | 5.512 Mbytes
Step Temp Press PotEng KinEng 
     200            1   0.01647278    21.578605        1.485 
     300    1.4020472  -0.01763915    20.895767    2.0820401 
Loop time of 0.00165105 on 1 procs for 100 steps with 100 atoms

Performance: 26165188.852 tau/day, 60567.567 timesteps/s
99.8% CPU use with 1 MPI tasks x 1 OpenMP threads

MPI task timing breakdown:
Section |  min time  |  avg time  |  max time  |%varavg| %total
---------------------------------------------------------------
Pair    | 0.00077057 | 0.00077057 | 0.00077057 |   0.0 | 46.67
Bond    | 0.00017309 | 0.00017309 | 0.00017309 |   0.0 | 10.48
Neigh   | 0          | 0          | 0          |   0.0 |  0.00
Comm    | 7.7009e-05 | 7.7009e-05 | 7.7009e-05 |   0.0 |  4.66
Output  | 6.9141e-06 | 6.9141e-06 | 6.9141e-06 |   0.0 |  0.42
Modify  | 0.00059032 | 0.00059032 | 0.00059032 |   0.0 | 35.75
Other   |            | 3.314e-05  |            |       |  2.01

Nlocal:    100 ave 100 max 100 min
Histogram: 1 0 0 0 0 0 0 0 0 0
Nghost:    176 ave 176 max 176 min
Histogram: 1 0 0 0 0 0 0 0 0 0
Neighs:    1773 ave 1773 max 1773 min
Histogram: 1 0 0 0 0 0 0 0 0 0

Total # of neighbors = 1773
Ave neighs/atom = 17.73
Ave special neighs/atom = 1.98
Neighbor list builds = 0
Dangerous builds = 0
unfix 1
unfix 2

pair_style    lj/cut/soft 1.0 1.0 1.5
pair_coeff    1 2 0.2 0.20800000000000002 0.1
pair_style    lj/cut/soft 1.0 1.0 1.5
pair_coeff    1 1 0.2 0.20800000000000002 0.1
pair_style    lj/cut/soft 1.0 1.0 1.5
pair_coeff    2 2 0.5 0.20800000000000002 0.1
velocity        all create 1.0 52690
fix             1 all nve/limit 1.5
fix             2 all langevin 1.0 1.0 10 52690
thermo_style    custom step temp press pe ke
thermo          100
run             100
Per MPI rank memory allocation (min/avg/max) = 5.512 | 5.512 | 5.512 Mbytes
Step Temp Press PotEng KinEng 
     300            1 -0.022618458     20.89546        1.485 
     400     1.173517 -0.0025528615    20.593457    1.7426727 
Loop time of 0.00171304 on 1 procs for 100 steps with 100 atoms

Performance: 25218362.255 tau/day, 58375.839 timesteps/s
99.8% CPU use with 1 MPI tasks x 1 OpenMP threads

MPI task timing breakdown:
Section |  min time  |  avg time  |  max time  |%varavg| %total
---------------------------------------------------------------
Pair    | 0.00080729 | 0.00080729 | 0.00080729 |   0.0 | 47.13
Bond    | 0.00017357 | 0.00017357 | 0.00017357 |   0.0 | 10.13
Neigh   | 0          | 0          | 0          |   0.0 |  0.00
Comm    | 7.5817e-05 | 7.5817e-05 | 7.5817e-05 |   0.0 |  4.43
Output  | 6.9141e-06 | 6.9141e-06 | 6.9141e-06 |   0.0 |  0.40
Modify  | 0.00061297 | 0.00061297 | 0.00061297 |   0.0 | 35.78
Other   |            | 3.648e-05  |            |       |  2.13

Nlocal:    100 ave 100 max 100 min
Histogram: 1 0 0 0 0 0 0 0 0 0
Nghost:    182 ave 182 max 182 min
Histogram: 1 0 0 0 0 0 0 0 0 0
Neighs:    1761 ave 1761 max 1761 min
Histogram: 1 0 0 0 0 0 0 0 0 0

Total # of neighbors = 1761
Ave neighs/atom = 17.61
Ave special neighs/atom = 1.98
Neighbor list builds = 0
Dangerous builds = 0
unfix 1
unfix 2

pair_style    lj/cut/soft 1.0 1.0 1.5
pair_coeff    1 2 0.2 0.2575 0.1
pair_style    lj/cut/soft 1.0 1.0 1.5
pair_coeff    1 1 0.2 0.2575 0.1
pair_style    lj/cut/soft 1.0 1.0 1.5
pair_coeff    2 2 0.5 0.2575 0.1
velocity        all create 1.0 52690
fix             1 all nve/limit 1.5
fix             2 all langevin 1.0 1.0 10 52690
thermo_style    custom step temp press pe ke
thermo          100
run             100
Per MPI rank memory allocation (min/avg/max) = 5.512 | 5.512 | 5.512 Mbytes
Step Temp Press PotEng KinEng 
     400            1 -0.0046948295    20.592891        1.485 
     500   0.97666596 -0.018843567    20.577461     1.450349 
Loop time of 0.00159383 on 1 procs for 100 steps with 100 atoms

Performance: 27104552.401 tau/day, 62742.019 timesteps/s
99.8% CPU use with 1 MPI tasks x 1 OpenMP threads

MPI task timing breakdown:
Section |  min time  |  avg time  |  max time  |%varavg| %total
---------------------------------------------------------------
Pair    | 0.00072885 | 0.00072885 | 0.00072885 |   0.0 | 45.73
Bond    | 0.00016999 | 0.00016999 | 0.00016999 |   0.0 | 10.67
Neigh   | 0          | 0          | 0          |   0.0 |  0.00
Comm    | 7.9155e-05 | 7.9155e-05 | 7.9155e-05 |   0.0 |  4.97
Output  | 5.9605e-06 | 5.9605e-06 | 5.9605e-06 |   0.0 |  0.37
Modify  | 0.00057411 | 0.00057411 | 0.00057411 |   0.0 | 36.02
Other   |            | 3.576e-05  |            |       |  2.24

Nlocal:    100 ave 100 max 100 min
Histogram: 1 0 0 0 0 0 0 0 0 0
Nghost:    181 ave 181 max 181 min
Histogram: 1 0 0 0 0 0 0 0 0 0
Neighs:    1730 ave 1730 max 1730 min
Histogram: 1 0 0 0 0 0 0 0 0 0

Total # of neighbors = 1730
Ave neighs/atom = 17.3
Ave special neighs/atom = 1.98
Neighbor list builds = 0
Dangerous builds = 0
unfix 1
unfix 2

pair_style    lj/cut/soft 1.0 1.0 1.5
pair_coeff    1 2 0.2 0.307 0.1
pair_style    lj/cut/soft 1.0 1.0 1.5
pair_coeff    1 1 0.2 0.307 0.1
pair_style    lj/cut/soft 1.0 1.0 1.5
pair_coeff    2 2 0.5 0.307 0.1
velocity        all create 1.0 52690
fix             1 all nve/limit 1.5
fix             2 all langevin 1.0 1.0 10 52690
thermo_style    custom step temp press pe ke
thermo          100
run             100
Per MPI rank memory allocation (min/avg/max) = 5.512 | 5.512 | 5.512 Mbytes
Step Temp Press PotEng KinEng 
     500            1 -0.018552831    20.577238        1.485 
     600    1.0185336 0.0038652031    20.531761    1.5125224 
Loop time of 0.00157619 on 1 procs for 100 steps with 100 atoms

Performance: 27407946.271 tau/day, 63444.320 timesteps/s
99.8% CPU use with 1 MPI tasks x 1 OpenMP threads

MPI task timing breakdown:
Section |  min time  |  avg time  |  max time  |%varavg| %total
---------------------------------------------------------------
Pair    | 0.00070524 | 0.00070524 | 0.00070524 |   0.0 | 44.74
Bond    | 0.00016117 | 0.00016117 | 0.00016117 |   0.0 | 10.23
Neigh   | 0          | 0          | 0          |   0.0 |  0.00
Comm    | 8.7976e-05 | 8.7976e-05 | 8.7976e-05 |   0.0 |  5.58
Output  | 5.9605e-06 | 5.9605e-06 | 5.9605e-06 |   0.0 |  0.38
Modify  | 0.00057936 | 0.00057936 | 0.00057936 |   0.0 | 36.76
Other   |            | 3.648e-05  |            |       |  2.31

Nlocal:    100 ave 100 max 100 min
Histogram: 1 0 0 0 0 0 0 0 0 0
Nghost:    197 ave 197 max 197 min
Histogram: 1 0 0 0 0 0 0 0 0 0
Neighs:    1703 ave 1703 max 1703 min
Histogram: 1 0 0 0 0 0 0 0 0 0

Total # of neighbors = 1703
Ave neighs/atom = 17.03
Ave special neighs/atom = 1.98
Neighbor list builds = 0
Dangerous builds = 0
unfix 1
unfix 2

pair_style    lj/cut/soft 1.0 1.0 1.5
pair_coeff    1 2 0.2 0.3565 0.1
pair_style    lj/cut/soft 1.0 1.0 1.5
pair_coeff    1 1 0.2 0.3565 0.1
pair_style    lj/cut/soft 1.0 1.0 1.5
pair_coeff    2 2 0.5 0.3565 0.1
velocity        all create 1.0 52690
fix             1 all nve/limit 1.5
fix             2 all langevin 1.0 1.0 10 52690
thermo_style    custom step temp press pe ke
thermo          100
run             100
Per MPI rank memory allocation (min/avg/max) = 5.512 | 5.512 | 5.512 Mbytes
Step Temp Press PotEng KinEng 
     600            1 0.0036273562    20.530977        1.485 
     700    1.0047894  0.020750749    20.512364    1.4921123 
Loop time of 0.00160098 on 1 procs for 100 steps with 100 atoms

Performance: 26983459.836 tau/day, 62461.713 timesteps/s
99.5% CPU use with 1 MPI tasks x 1 OpenMP threads

MPI task timing breakdown:
Section |  min time  |  avg time  |  max time  |%varavg| %total
---------------------------------------------------------------
Pair    | 0.00071526 | 0.00071526 | 0.00071526 |   0.0 | 44.68
Bond    | 0.00015974 | 0.00015974 | 0.00015974 |   0.0 |  9.98
Neigh   | 0          | 0          | 0          |   0.0 |  0.00
Comm    | 8.2016e-05 | 8.2016e-05 | 8.2016e-05 |   0.0 |  5.12
Output  | 1.0967e-05 | 1.0967e-05 | 1.0967e-05 |   0.0 |  0.69
Modify  | 0.00059748 | 0.00059748 | 0.00059748 |   0.0 | 37.32
Other   |            | 3.552e-05  |            |       |  2.22

Nlocal:    100 ave 100 max 100 min
Histogram: 1 0 0 0 0 0 0 0 0 0
Nghost:    193 ave 193 max 193 min
Histogram: 1 0 0 0 0 0 0 0 0 0
Neighs:    1673 ave 1673 max 1673 min
Histogram: 1 0 0 0 0 0 0 0 0 0

Total # of neighbors = 1673
Ave neighs/atom = 16.73
Ave special neighs/atom = 1.98
Neighbor list builds = 0
Dangerous builds = 0
unfix 1
unfix 2

pair_style    lj/cut/soft 1.0 1.0 1.5
pair_coeff    1 2 0.2 0.40599999999999997 0.1
pair_style    lj/cut/soft 1.0 1.0 1.5
pair_coeff    1 1 0.2 0.40599999999999997 0.1
pair_style    lj/cut/soft 1.0 1.0 1.5
pair_coeff    2 2 0.5 0.40599999999999997 0.1
velocity        all create 1.0 52690
fix             1 all nve/limit 1.5
fix             2 all langevin 1.0 1.0 10 52690
thermo_style    custom step temp press pe ke
thermo          100
run             100
Per MPI rank memory allocation (min/avg/max) = 5.512 | 5.512 | 5.512 Mbytes
Step Temp Press PotEng KinEng 
     700            1  0.020682743    20.512045        1.485 
     800   0.90209179 -0.012893173    20.563399    1.3396063 
Loop time of 0.0015099 on 1 procs for 100 steps with 100 atoms

Performance: 28611074.183 tau/day, 66229.338 timesteps/s
99.8% CPU use with 1 MPI tasks x 1 OpenMP threads

MPI task timing breakdown:
Section |  min time  |  avg time  |  max time  |%varavg| %total
---------------------------------------------------------------
Pair    | 0.00063872 | 0.00063872 | 0.00063872 |   0.0 | 42.30
Bond    | 0.00016141 | 0.00016141 | 0.00016141 |   0.0 | 10.69
Neigh   | 0          | 0          | 0          |   0.0 |  0.00
Comm    | 8.6546e-05 | 8.6546e-05 | 8.6546e-05 |   0.0 |  5.73
Output  | 5.9605e-06 | 5.9605e-06 | 5.9605e-06 |   0.0 |  0.39
Modify  | 0.00057459 | 0.00057459 | 0.00057459 |   0.0 | 38.05
Other   |            | 4.268e-05  |            |       |  2.83

Nlocal:    100 ave 100 max 100 min
Histogram: 1 0 0 0 0 0 0 0 0 0
Nghost:    210 ave 210 max 210 min
Histogram: 1 0 0 0 0 0 0 0 0 0
Neighs:    1617 ave 1617 max 1617 min
Histogram: 1 0 0 0 0 0 0 0 0 0

Total # of neighbors = 1617
Ave neighs/atom = 16.17
Ave special neighs/atom = 1.98
Neighbor list builds = 0
Dangerous builds = 0
unfix 1
unfix 2

pair_style    lj/cut/soft 1.0 1.0 1.5
pair_coeff    1 2 0.2 0.45549999999999996 0.1
pair_style    lj/cut/soft 1.0 1.0 1.5
pair_coeff    1 1 0.2 0.45549999999999996 0.1
pair_style    lj/cut/soft 1.0 1.0 1.5
pair_coeff    2 2 0.5 0.45549999999999996 0.1
velocity        all create 1.0 52690
fix             1 all nve/limit 1.5
fix             2 all langevin 1.0 1.0 10 52690
thermo_style    custom step temp press pe ke
thermo          100
run             100
Per MPI rank memory allocation (min/avg/max) = 5.512 | 5.512 | 5.512 Mbytes
Step Temp Press PotEng KinEng 
     800            1 -0.011684941    20.562871        1.485 
     900    1.0191267 -0.0042665188    20.547488    1.5134032 
Loop time of 0.0014801 on 1 procs for 100 steps with 100 atoms

Performance: 29187167.010 tau/day, 67562.887 timesteps/s
99.8% CPU use with 1 MPI tasks x 1 OpenMP threads

MPI task timing breakdown:
Section |  min time  |  avg time  |  max time  |%varavg| %total
---------------------------------------------------------------
Pair    | 0.00059772 | 0.00059772 | 0.00059772 |   0.0 | 40.38
Bond    | 0.00016928 | 0.00016928 | 0.00016928 |   0.0 | 11.44
Neigh   | 0          | 0          | 0          |   0.0 |  0.00
Comm    | 8.1062e-05 | 8.1062e-05 | 8.1062e-05 |   0.0 |  5.48
Output  | 5.9605e-06 | 5.9605e-06 | 5.9605e-06 |   0.0 |  0.40
Modify  | 0.00058126 | 0.00058126 | 0.00058126 |   0.0 | 39.27
Other   |            | 4.482e-05  |            |       |  3.03

Nlocal:    100 ave 100 max 100 min
Histogram: 1 0 0 0 0 0 0 0 0 0
Nghost:    205 ave 205 max 205 min
Histogram: 1 0 0 0 0 0 0 0 0 0
Neighs:    1558 ave 1558 max 1558 min
Histogram: 1 0 0 0 0 0 0 0 0 0

Total # of neighbors = 1558
Ave neighs/atom = 15.58
Ave special neighs/atom = 1.98
Neighbor list builds = 0
Dangerous builds = 0
unfix 1
unfix 2

pair_style    lj/cut/soft 1.0 1.0 1.5
pair_coeff    1 2 0.2 0.505 0.1
pair_style    lj/cut/soft 1.0 1.0 1.5
pair_coeff    1 1 0.2 0.505 0.1
pair_style    lj/cut/soft 1.0 1.0 1.5
pair_coeff    2 2 0.5 0.505 0.1
velocity        all create 1.0 52690
fix             1 all nve/limit 1.5
fix             2 all langevin 1.0 1.0 10 52690
thermo_style    custom step temp press pe ke
thermo          100
run             100
Per MPI rank memory allocation (min/avg/max) = 5.512 | 5.512 | 5.512 Mbytes
Step Temp Press PotEng KinEng 
     900            1 -0.0045083355    20.547313        1.485 
    1000   0.97901843 -0.0091654941    20.556183    1.4538424 
Loop time of 0.00148606 on 1 procs for 100 steps with 100 atoms

Performance: 29070099.920 tau/day, 67291.898 timesteps/s
100.1% CPU use with 1 MPI tasks x 1 OpenMP threads

MPI task timing breakdown:
Section |  min time  |  avg time  |  max time  |%varavg| %total
---------------------------------------------------------------
Pair    | 0.00056934 | 0.00056934 | 0.00056934 |   0.0 | 38.31
Bond    | 0.00017667 | 0.00017667 | 0.00017667 |   0.0 | 11.89
Neigh   | 0          | 0          | 0          |   0.0 |  0.00
Comm    | 7.7009e-05 | 7.7009e-05 | 7.7009e-05 |   0.0 |  5.18
Output  | 1.0967e-05 | 1.0967e-05 | 1.0967e-05 |   0.0 |  0.74
Modify  | 0.00060272 | 0.00060272 | 0.00060272 |   0.0 | 40.56
Other   |            | 4.935e-05  |            |       |  3.32

Nlocal:    100 ave 100 max 100 min
Histogram: 1 0 0 0 0 0 0 0 0 0
Nghost:    210 ave 210 max 210 min
Histogram: 1 0 0 0 0 0 0 0 0 0
Neighs:    1494 ave 1494 max 1494 min
Histogram: 1 0 0 0 0 0 0 0 0 0

Total # of neighbors = 1494
Ave neighs/atom = 14.94
Ave special neighs/atom = 1.98
Neighbor list builds = 0
Dangerous builds = 0
unfix 1
unfix 2

pair_style    lj/cut/soft 1.0 1.0 1.5
pair_coeff    1 2 0.2 0.5545 0.1
pair_style    lj/cut/soft 1.0 1.0 1.5
pair_coeff    1 1 0.2 0.5545 0.1
pair_style    lj/cut/soft 1.0 1.0 1.5
pair_coeff    2 2 0.5 0.5545 0.1
velocity        all create 1.0 52690
fix             1 all nve/limit 1.5
fix             2 all langevin 1.0 1.0 10 52690
thermo_style    custom step temp press pe ke
thermo          100
run             100
Per MPI rank memory allocation (min/avg/max) = 5.513 | 5.513 | 5.513 Mbytes
Step Temp Press PotEng KinEng 
    1000            1 -0.0089139873    20.555492        1.485 
    1100    0.9834274  -0.01353492    20.582148    1.4603897 
Loop time of 0.00143003 on 1 procs for 100 steps with 100 atoms

Performance: 30209058.486 tau/day, 69928.376 timesteps/s
99.8% CPU use with 1 MPI tasks x 1 OpenMP threads

MPI task timing breakdown:
Section |  min time  |  avg time  |  max time  |%varavg| %total
---------------------------------------------------------------
Pair    | 0.00052714 | 0.00052714 | 0.00052714 |   0.0 | 36.86
Bond    | 0.00017786 | 0.00017786 | 0.00017786 |   0.0 | 12.44
Neigh   | 0          | 0          | 0          |   0.0 |  0.00
Comm    | 8.4162e-05 | 8.4162e-05 | 8.4162e-05 |   0.0 |  5.89
Output  | 6.9141e-06 | 6.9141e-06 | 6.9141e-06 |   0.0 |  0.48
Modify  | 0.00058556 | 0.00058556 | 0.00058556 |   0.0 | 40.95
Other   |            | 4.84e-05   |            |       |  3.38

Nlocal:    100 ave 100 max 100 min
Histogram: 1 0 0 0 0 0 0 0 0 0
Nghost:    218 ave 218 max 218 min
Histogram: 1 0 0 0 0 0 0 0 0 0
Neighs:    1425 ave 1425 max 1425 min
Histogram: 1 0 0 0 0 0 0 0 0 0

Total # of neighbors = 1425
Ave neighs/atom = 14.25
Ave special neighs/atom = 1.98
Neighbor list builds = 0
Dangerous builds = 0
unfix 1
unfix 2

pair_style    lj/cut/soft 1.0 1.0 1.5
pair_coeff    1 2 0.2 0.604 0.1
pair_style    lj/cut/soft 1.0 1.0 1.5
pair_coeff    1 1 0.2 0.604 0.1
pair_style    lj/cut/soft 1.0 1.0 1.5
pair_coeff    2 2 0.5 0.604 0.1
velocity        all create 1.0 52690
fix             1 all nve/limit 1.5
fix             2 all langevin 1.0 1.0 10 52690
thermo_style    custom step temp press pe ke
thermo          100
run             100
Per MPI rank memory allocation (min/avg/max) = 5.513 | 5.513 | 5.513 Mbytes
Step Temp Press PotEng KinEng 
    1100            1 -0.013333601    20.581681        1.485 
    1200   0.96723347 -0.004883891    20.640563    1.4363417 
Loop time of 0.0014081 on 1 procs for 100 steps with 100 atoms

Performance: 30679636.438 tau/day, 71017.677 timesteps/s
99.8% CPU use with 1 MPI tasks x 1 OpenMP threads

MPI task timing breakdown:
Section |  min time  |  avg time  |  max time  |%varavg| %total
---------------------------------------------------------------
Pair    | 0.00051618 | 0.00051618 | 0.00051618 |   0.0 | 36.66
Bond    | 0.00016475 | 0.00016475 | 0.00016475 |   0.0 | 11.70
Neigh   | 0          | 0          | 0          |   0.0 |  0.00
Comm    | 9.5844e-05 | 9.5844e-05 | 9.5844e-05 |   0.0 |  6.81
Output  | 6.9141e-06 | 6.9141e-06 | 6.9141e-06 |   0.0 |  0.49
Modify  | 0.00057793 | 0.00057793 | 0.00057793 |   0.0 | 41.04
Other   |            | 4.649e-05  |            |       |  3.30

Nlocal:    100 ave 100 max 100 min
Histogram: 1 0 0 0 0 0 0 0 0 0
Nghost:    227 ave 227 max 227 min
Histogram: 1 0 0 0 0 0 0 0 0 0
Neighs:    1375 ave 1375 max 1375 min
Histogram: 1 0 0 0 0 0 0 0 0 0

Total # of neighbors = 1375
Ave neighs/atom = 13.75
Ave special neighs/atom = 1.98
Neighbor list builds = 0
Dangerous builds = 0
unfix 1
unfix 2

pair_style    lj/cut/soft 1.0 1.0 1.5
pair_coeff    1 2 0.2 0.6535 0.1
pair_style    lj/cut/soft 1.0 1.0 1.5
pair_coeff    1 1 0.2 0.6535 0.1
pair_style    lj/cut/soft 1.0 1.0 1.5
pair_coeff    2 2 0.5 0.6535 0.1
velocity        all create 1.0 52690
fix             1 all nve/limit 1.5
fix             2 all langevin 1.0 1.0 10 52690
thermo_style    custom step temp press pe ke
thermo          100
run             100
Per MPI rank memory allocation (min/avg/max) = 5.513 | 5.513 | 5.513 Mbytes
Step Temp Press PotEng KinEng 
    1200            1 -0.0044844215    20.640034        1.485 
    1300    1.0272404 -0.0076463012    20.545748    1.5254519 
Loop time of 0.00139713 on 1 procs for 100 steps with 100 atoms

Performance: 30920466.348 tau/day, 71575.154 timesteps/s
99.7% CPU use with 1 MPI tasks x 1 OpenMP threads

MPI task timing breakdown:
Section |  min time  |  avg time  |  max time  |%varavg| %total
---------------------------------------------------------------
Pair    | 0.00051069 | 0.00051069 | 0.00051069 |   0.0 | 36.55
Bond    | 0.00016403 | 0.00016403 | 0.00016403 |   0.0 | 11.74
Neigh   | 0          | 0          | 0          |   0.0 |  0.00
Comm    | 9.5367e-05 | 9.5367e-05 | 9.5367e-05 |   0.0 |  6.83
Output  | 6.1989e-06 | 6.1989e-06 | 6.1989e-06 |   0.0 |  0.44
Modify  | 0.00058317 | 0.00058317 | 0.00058317 |   0.0 | 41.74
Other   |            | 3.767e-05  |            |       |  2.70

Nlocal:    100 ave 100 max 100 min
Histogram: 1 0 0 0 0 0 0 0 0 0
Nghost:    218 ave 218 max 218 min
Histogram: 1 0 0 0 0 0 0 0 0 0
Neighs:    1345 ave 1345 max 1345 min
Histogram: 1 0 0 0 0 0 0 0 0 0

Total # of neighbors = 1345
Ave neighs/atom = 13.45
Ave special neighs/atom = 1.98
Neighbor list builds = 0
Dangerous builds = 0
unfix 1
unfix 2

pair_style    lj/cut/soft 1.0 1.0 1.5
pair_coeff    1 2 0.2 0.703 0.1
pair_style    lj/cut/soft 1.0 1.0 1.5
pair_coeff    1 1 0.2 0.703 0.1
pair_style    lj/cut/soft 1.0 1.0 1.5
pair_coeff    2 2 0.5 0.703 0.1
velocity        all create 1.0 52690
fix             1 all nve/limit 1.5
fix             2 all langevin 1.0 1.0 10 52690
thermo_style    custom step temp press pe ke
thermo          100
run             100
Per MPI rank memory allocation (min/avg/max) = 5.513 | 5.513 | 5.513 Mbytes
Step Temp Press PotEng KinEng 
    1300            1 -0.0079909455    20.545057        1.485 
    1400   0.86066424 -0.016939506    20.706542    1.2780864 
Loop time of 0.00139308 on 1 procs for 100 steps with 100 atoms

Performance: 31010428.342 tau/day, 71783.399 timesteps/s
99.8% CPU use with 1 MPI tasks x 1 OpenMP threads

MPI task timing breakdown:
Section |  min time  |  avg time  |  max time  |%varavg| %total
---------------------------------------------------------------
Pair    | 0.000494   | 0.000494   | 0.000494   |   0.0 | 35.46
Bond    | 0.00017858 | 0.00017858 | 0.00017858 |   0.0 | 12.82
Neigh   | 0          | 0          | 0          |   0.0 |  0.00
Comm    | 8.893e-05  | 8.893e-05  | 8.893e-05  |   0.0 |  6.38
Output  | 5.9605e-06 | 5.9605e-06 | 5.9605e-06 |   0.0 |  0.43
Modify  | 0.00059247 | 0.00059247 | 0.00059247 |   0.0 | 42.53
Other   |            | 3.314e-05  |            |       |  2.38

Nlocal:    100 ave 100 max 100 min
Histogram: 1 0 0 0 0 0 0 0 0 0
Nghost:    231 ave 231 max 231 min
Histogram: 1 0 0 0 0 0 0 0 0 0
Neighs:    1283 ave 1283 max 1283 min
Histogram: 1 0 0 0 0 0 0 0 0 0

Total # of neighbors = 1283
Ave neighs/atom = 12.83
Ave special neighs/atom = 1.98
Neighbor list builds = 0
Dangerous builds = 0
unfix 1
unfix 2

pair_style    lj/cut/soft 1.0 1.0 1.5
pair_coeff    1 2 0.2 0.7525 0.1
pair_style    lj/cut/soft 1.0 1.0 1.5
pair_coeff    1 1 0.2 0.7525 0.1
pair_style    lj/cut/soft 1.0 1.0 1.5
pair_coeff    2 2 0.5 0.7525 0.1
velocity        all create 1.0 52690
fix             1 all nve/limit 1.5
fix             2 all langevin 1.0 1.0 10 52690
thermo_style    custom step temp press pe ke
thermo          100
run             100
Per MPI rank memory allocation (min/avg/max) = 5.513 | 5.513 | 5.513 Mbytes
Step Temp Press PotEng KinEng 
    1400            1 -0.015224429    20.705803        1.485 
    1500    1.0022856 -0.019813747    20.632815    1.4883942 
Loop time of 0.00137901 on 1 procs for 100 steps with 100 atoms

Performance: 31326751.867 tau/day, 72515.629 timesteps/s
99.9% CPU use with 1 MPI tasks x 1 OpenMP threads

MPI task timing breakdown:
Section |  min time  |  avg time  |  max time  |%varavg| %total
---------------------------------------------------------------
Pair    | 0.00047398 | 0.00047398 | 0.00047398 |   0.0 | 34.37
Bond    | 0.00017023 | 0.00017023 | 0.00017023 |   0.0 | 12.34
Neigh   | 0          | 0          | 0          |   0.0 |  0.00
Comm    | 9.0599e-05 | 9.0599e-05 | 9.0599e-05 |   0.0 |  6.57
Output  | 5.9605e-06 | 5.9605e-06 | 5.9605e-06 |   0.0 |  0.43
Modify  | 0.00059843 | 0.00059843 | 0.00059843 |   0.0 | 43.40
Other   |            | 3.982e-05  |            |       |  2.89

Nlocal:    100 ave 100 max 100 min
Histogram: 1 0 0 0 0 0 0 0 0 0
Nghost:    225 ave 225 max 225 min
Histogram: 1 0 0 0 0 0 0 0 0 0
Neighs:    1247 ave 1247 max 1247 min
Histogram: 1 0 0 0 0 0 0 0 0 0

Total # of neighbors = 1247
Ave neighs/atom = 12.47
Ave special neighs/atom = 1.98
Neighbor list builds = 0
Dangerous builds = 0
unfix 1
unfix 2

pair_style    lj/cut/soft 1.0 1.0 1.5
pair_coeff    1 2 0.2 0.8019999999999999 0.1
pair_style    lj/cut/soft 1.0 1.0 1.5
pair_coeff    1 1 0.2 0.8019999999999999 0.1
pair_style    lj/cut/soft 1.0 1.0 1.5
pair_coeff    2 2 0.5 0.8019999999999999 0.1
velocity        all create 1.0 52690
fix             1 all nve/limit 1.5
fix             2 all langevin 1.0 1.0 10 52690
thermo_style    custom step temp press pe ke
thermo          100
run             100
Per MPI rank memory allocation (min/avg/max) = 5.513 | 5.513 | 5.513 Mbytes
Step Temp Press PotEng KinEng 
    1500            1 -0.019844311    20.631932        1.485 
    1600     1.050093 -0.0044716556    20.508252    1.5593881 
Loop time of 0.00137591 on 1 procs for 100 steps with 100 atoms

Performance: 31397319.841 tau/day, 72678.981 timesteps/s
99.6% CPU use with 1 MPI tasks x 1 OpenMP threads

MPI task timing breakdown:
Section |  min time  |  avg time  |  max time  |%varavg| %total
---------------------------------------------------------------
Pair    | 0.00046611 | 0.00046611 | 0.00046611 |   0.0 | 33.88
Bond    | 0.00016737 | 0.00016737 | 0.00016737 |   0.0 | 12.16
Neigh   | 0          | 0          | 0          |   0.0 |  0.00
Comm    | 9.6321e-05 | 9.6321e-05 | 9.6321e-05 |   0.0 |  7.00
Output  | 1.0967e-05 | 1.0967e-05 | 1.0967e-05 |   0.0 |  0.80
Modify  | 0.00059843 | 0.00059843 | 0.00059843 |   0.0 | 43.49
Other   |            | 3.672e-05  |            |       |  2.67

Nlocal:    100 ave 100 max 100 min
Histogram: 1 0 0 0 0 0 0 0 0 0
Nghost:    235 ave 235 max 235 min
Histogram: 1 0 0 0 0 0 0 0 0 0
Neighs:    1214 ave 1214 max 1214 min
Histogram: 1 0 0 0 0 0 0 0 0 0

Total # of neighbors = 1214
Ave neighs/atom = 12.14
Ave special neighs/atom = 1.98
Neighbor list builds = 0
Dangerous builds = 0
unfix 1
unfix 2

pair_style    lj/cut/soft 1.0 1.0 1.5
pair_coeff    1 2 0.2 0.8514999999999999 0.1
pair_style    lj/cut/soft 1.0 1.0 1.5
pair_coeff    1 1 0.2 0.8514999999999999 0.1
pair_style    lj/cut/soft 1.0 1.0 1.5
pair_coeff    2 2 0.5 0.8514999999999999 0.1
velocity        all create 1.0 52690
fix             1 all nve/limit 1.5
fix             2 all langevin 1.0 1.0 10 52690
thermo_style    custom step temp press pe ke
thermo          100
run             100
Per MPI rank memory allocation (min/avg/max) = 5.513 | 5.513 | 5.513 Mbytes
Step Temp Press PotEng KinEng 
    1600            1 -0.0050957229     20.50768        1.485 
    1700   0.99633871 -0.010583231      20.5729     1.479563 
Loop time of 0.001333 on 1 procs for 100 steps with 100 atoms

Performance: 32408143.946 tau/day, 75018.852 timesteps/s
99.7% CPU use with 1 MPI tasks x 1 OpenMP threads

MPI task timing breakdown:
Section |  min time  |  avg time  |  max time  |%varavg| %total
---------------------------------------------------------------
Pair    | 0.00043344 | 0.00043344 | 0.00043344 |   0.0 | 32.52
Bond    | 0.00017166 | 0.00017166 | 0.00017166 |   0.0 | 12.88
Neigh   | 0          | 0          | 0          |   0.0 |  0.00
Comm    | 9.3937e-05 | 9.3937e-05 | 9.3937e-05 |   0.0 |  7.05
Output  | 5.9605e-06 | 5.9605e-06 | 5.9605e-06 |   0.0 |  0.45
Modify  | 0.0005827  | 0.0005827  | 0.0005827  |   0.0 | 43.71
Other   |            | 4.53e-05   |            |       |  3.40

Nlocal:    100 ave 100 max 100 min
Histogram: 1 0 0 0 0 0 0 0 0 0
Nghost:    237 ave 237 max 237 min
Histogram: 1 0 0 0 0 0 0 0 0 0
Neighs:    1170 ave 1170 max 1170 min
Histogram: 1 0 0 0 0 0 0 0 0 0

Total # of neighbors = 1170
Ave neighs/atom = 11.7
Ave special neighs/atom = 1.98
Neighbor list builds = 0
Dangerous builds = 0
unfix 1
unfix 2

pair_style    lj/cut/soft 1.0 1.0 1.5
pair_coeff    1 2 0.2 0.9009999999999999 0.1
pair_style    lj/cut/soft 1.0 1.0 1.5
pair_coeff    1 1 0.2 0.9009999999999999 0.1
pair_style    lj/cut/soft 1.0 1.0 1.5
pair_coeff    2 2 0.5 0.9009999999999999 0.1
velocity        all create 1.0 52690
fix             1 all nve/limit 1.5
fix             2 all langevin 1.0 1.0 10 52690
thermo_style    custom step temp press pe ke
thermo          100
run             100
Per MPI rank memory allocation (min/avg/max) = 5.513 | 5.513 | 5.513 Mbytes
Step Temp Press PotEng KinEng 
    1700            1 -0.010537599    20.572018        1.485 
    1800    1.0078786 -0.0054280963    20.589118    1.4966998 
Loop time of 0.0013361 on 1 procs for 100 steps with 100 atoms

Performance: 32332964.454 tau/day, 74844.825 timesteps/s
99.8% CPU use with 1 MPI tasks x 1 OpenMP threads

MPI task timing breakdown:
Section |  min time  |  avg time  |  max time  |%varavg| %total
---------------------------------------------------------------
Pair    | 0.00042343 | 0.00042343 | 0.00042343 |   0.0 | 31.69
Bond    | 0.00016689 | 0.00016689 | 0.00016689 |   0.0 | 12.49
Neigh   | 0          | 0          | 0          |   0.0 |  0.00
Comm    | 0.00010538 | 0.00010538 | 0.00010538 |   0.0 |  7.89
Output  | 7.8678e-06 | 7.8678e-06 | 7.8678e-06 |   0.0 |  0.59
Modify  | 0.00059247 | 0.00059247 | 0.00059247 |   0.0 | 44.34
Other   |            | 4.005e-05  |            |       |  3.00

Nlocal:    100 ave 100 max 100 min
Histogram: 1 0 0 0 0 0 0 0 0 0
Nghost:    239 ave 239 max 239 min
Histogram: 1 0 0 0 0 0 0 0 0 0
Neighs:    1166 ave 1166 max 1166 min
Histogram: 1 0 0 0 0 0 0 0 0 0

Total # of neighbors = 1166
Ave neighs/atom = 11.66
Ave special neighs/atom = 1.98
Neighbor list builds = 0
Dangerous builds = 0
unfix 1
unfix 2

pair_style    lj/cut/soft 1.0 1.0 1.5
pair_coeff    1 2 0.2 0.9504999999999999 0.1
pair_style    lj/cut/soft 1.0 1.0 1.5
pair_coeff    1 1 0.2 0.9504999999999999 0.1
pair_style    lj/cut/soft 1.0 1.0 1.5
pair_coeff    2 2 0.5 0.9504999999999999 0.1
velocity        all create 1.0 52690
fix             1 all nve/limit 1.5
fix             2 all langevin 1.0 1.0 10 52690
thermo_style    custom step temp press pe ke
thermo          100
run             100
Per MPI rank memory allocation (min/avg/max) = 5.513 | 5.513 | 5.513 Mbytes
Step Temp Press PotEng KinEng 
    1800            1 -0.0055277267    20.588332        1.485 
    1900   0.97120937  0.013973345    20.631057    1.4422459 
Loop time of 0.00150299 on 1 procs for 100 steps with 100 atoms

Performance: 28742692.386 tau/day, 66534.010 timesteps/s
99.7% CPU use with 1 MPI tasks x 1 OpenMP threads

MPI task timing breakdown:
Section |  min time  |  avg time  |  max time  |%varavg| %total
---------------------------------------------------------------
Pair    | 0.00046945 | 0.00046945 | 0.00046945 |   0.0 | 31.23
Bond    | 0.00018764 | 0.00018764 | 0.00018764 |   0.0 | 12.48
Neigh   | 0          | 0          | 0          |   0.0 |  0.00
Comm    | 0.00011992 | 0.00011992 | 0.00011992 |   0.0 |  7.98
Output  | 8.1062e-06 | 8.1062e-06 | 8.1062e-06 |   0.0 |  0.54
Modify  | 0.00067496 | 0.00067496 | 0.00067496 |   0.0 | 44.91
Other   |            | 4.292e-05  |            |       |  2.86

Nlocal:    100 ave 100 max 100 min
Histogram: 1 0 0 0 0 0 0 0 0 0
Nghost:    244 ave 244 max 244 min
Histogram: 1 0 0 0 0 0 0 0 0 0
Neighs:    1155 ave 1155 max 1155 min
Histogram: 1 0 0 0 0 0 0 0 0 0

Total # of neighbors = 1155
Ave neighs/atom = 11.55
Ave special neighs/atom = 1.98
Neighbor list builds = 0
Dangerous builds = 0
unfix 1
unfix 2

pair_style    lj/cut/soft 1.0 1.0 1.5
pair_coeff    1 2 0.2 0.9999999999999999 0.1
pair_style    lj/cut/soft 1.0 1.0 1.5
pair_coeff    1 1 0.2 0.9999999999999999 0.1
pair_style    lj/cut/soft 1.0 1.0 1.5
pair_coeff    2 2 0.5 0.9999999999999999 0.1
velocity        all create 1.0 52690
fix             1 all nve/limit 1.5
fix             2 all langevin 1.0 1.0 10 52690
thermo_style    custom step temp press pe ke
thermo          100
run             100
Per MPI rank memory allocation (min/avg/max) = 5.513 | 5.513 | 5.513 Mbytes
Step Temp Press PotEng KinEng 
    1900            1  0.014326813    20.630536        1.485 
    2000    0.9621314 -0.0067396872    20.585926    1.4287651 
Loop time of 0.00148892 on 1 procs for 100 steps with 100 atoms

Performance: 29014240.641 tau/day, 67162.594 timesteps/s
99.5% CPU use with 1 MPI tasks x 1 OpenMP threads

MPI task timing breakdown:
Section |  min time  |  avg time  |  max time  |%varavg| %total
---------------------------------------------------------------
Pair    | 0.0004828  | 0.0004828  | 0.0004828  |   0.0 | 32.43
Bond    | 0.00019169 | 0.00019169 | 0.00019169 |   0.0 | 12.87
Neigh   | 0          | 0          | 0          |   0.0 |  0.00
Comm    | 9.2983e-05 | 9.2983e-05 | 9.2983e-05 |   0.0 |  6.24
Output  | 1.3113e-05 | 1.3113e-05 | 1.3113e-05 |   0.0 |  0.88
Modify  | 0.00065923 | 0.00065923 | 0.00065923 |   0.0 | 44.28
Other   |            | 4.911e-05  |            |       |  3.30

Nlocal:    100 ave 100 max 100 min
Histogram: 1 0 0 0 0 0 0 0 0 0
Nghost:    240 ave 240 max 240 min
Histogram: 1 0 0 0 0 0 0 0 0 0
Neighs:    1167 ave 1167 max 1167 min
Histogram: 1 0 0 0 0 0 0 0 0 0

Total # of neighbors = 1167
Ave neighs/atom = 11.67
Ave special neighs/atom = 1.98
Neighbor list builds = 0
Dangerous builds = 0
unfix 1
unfix 2



#---------------------------------------------------------------------------------------------------
# EQUILIBRATION STAGE 1
#---------------------------------------------------------------------------------------------------
velocity        all create 1.0 58841
fix             1 all nve/limit 1.5
fix             2 all langevin 1.0 1.0 10.0 58841
thermo_style    custom step temp press pe ke
thermo          100
run             100000
Per MPI rank memory allocation (min/avg/max) = 5.513 | 5.513 | 5.513 Mbytes
Step Temp Press PotEng KinEng 
    2000            1 -0.0062710632    20.585926        1.485 
    2100    1.1091174 -0.018495135    20.523066    1.6470393 
    2200    1.0888896 0.0031060469    20.541692     1.617001 
    2300    1.0814072 -0.0022659705    20.527762    1.6058897 
    2400    1.0708976 0.00072511828    20.441834     1.590283 
    2500    1.0751607 -0.011549296    20.466951    1.5966137 
    2600   0.99287836 0.0011480176    20.530342    1.4744244 
    2700    1.0139397 0.00072048571      20.5588    1.5057005 
    2800     1.043565 -0.0091341719    20.553775     1.549694 
    2900   0.93057468 -0.0016538519    20.736051    1.3819034 
    3000    1.0259853 -0.0062479173    20.536399    1.5235881 
    3100   0.98080757 -0.015226865    20.627544    1.4564992 
    3200   0.97966207 -0.0011273457    20.648262    1.4547982 
    3300   0.99043703  0.010873936    20.586187     1.470799 
    3400    1.0125761 0.0099913856    20.653183    1.5036755 
    3500    1.0966594 -0.022389464    20.608067    1.6285392 
    3600    1.0951237 0.0059319444    20.568212    1.6262587 
    3700    1.1321851  0.009117173    20.497609    1.6812949 
    3800    1.0794155 0.0056547793    20.542213    1.6029321 
    3900    1.0591682 -0.0029030174    20.523202    1.5728648 
    4000    1.0503242  0.013321254    20.511859    1.5597314 
    4100    1.1252333  0.030642798    20.383334    1.6709714 
    4200   0.96749617  0.013076297    20.547905    1.4367318 
    4300   0.97853022 0.0087512821    20.452241    1.4531174 
    4400    1.0416184 -0.0069207187    20.342539    1.5468034 
    4500   0.94061315 -0.0082981727     20.49135    1.3968105 
    4600   0.92063392  0.018768058    20.498592    1.3671414 
    4700   0.91105976 -0.0030081989    20.563683    1.3529237 
    4800    0.9508712  0.020983083    20.414141    1.4120437 
    4900    0.8576685 0.0035913332    20.457375    1.2736377 
    5000   0.89850683 -0.0062110279    20.428814    1.3342826 
    5100   0.89883559  0.015979502    20.424187    1.3347709 
    5200   0.87956528 -0.012510776    20.515513    1.3061544 
    5300   0.85800687  0.010595161     20.50496    1.2741402 
    5400   0.88786247 0.00065914502    20.430369    1.3184758 
    5500   0.86539332  0.012661778    20.403794    1.2851091 
    5600   0.83055337 0.0093439065    20.412824    1.2333718 
    5700   0.85521251 -0.0032686489    20.423023    1.2699906 
    5800   0.90158918 -0.017989799    20.343437    1.3388599 
    5900   0.90779818 -0.0060304855    20.445444    1.3480803 
    6000   0.95802934 0.0059482447    20.425177    1.4226736 
    6100    1.0163714 0.00015360142    20.338806    1.5093115 
    6200    1.0289712  0.010886479    20.391675    1.5280222 
    6300    1.0060952  0.019918896    20.458693    1.4940513 
    6400    1.0031567 -0.0034233157    20.408021    1.4896877 
    6500    1.0259235  0.020576307    20.427062    1.5234964 
    6600    1.0294361  0.020659945    20.362514    1.5287126 
    6700    1.0138972  0.011729598    20.435622    1.5056374 
    6800    1.0144223  -0.01717545     20.40837    1.5064171 
    6900   0.99581067 0.00027668143    20.436321    1.4787788 
    7000    1.0354587 0.0051840265    20.411037    1.5376561 
    7100    1.0311643 -0.0035511367    20.394061     1.531279 
    7200   0.93757596  0.011881566     20.49715    1.3923003 
    7300    1.0433735  0.015111073    20.306088    1.5494096 
    7400   0.98629598 -0.0055605032    20.385121    1.4646495 
    7500   0.93063063  0.030839468    20.436331    1.3819865 
    7600    1.0251521 -0.0083035374    20.406955    1.5223508 
    7700    1.0554312  0.014265736    20.401288    1.5673154 
    7800   0.99866429 -0.0055788573    20.426364    1.4830165 
    7900   0.94784669 -0.0029670671    20.488868    1.4075523 
    8000   0.98029728 0.0055368323    20.507473    1.4557415 
    8100     1.011097 0.0017956225    20.421901     1.501479 
    8200   0.87828686 -0.020266497    20.560379     1.304256 
    8300   0.85034546 -0.015163107     20.56289     1.262763 
    8400   0.88377325   0.01632732    20.490747    1.3124033 
    8500    0.8296063 -0.0020067597    20.575447    1.2319654 
    8600    0.8938788  0.014142054    20.456276      1.32741 
    8700   0.83129572 -0.0090357858    20.546394    1.2344741 
    8800    0.8929517 -0.010842816    20.489014    1.3260333 
    8900   0.92713514  0.017798224    20.517174    1.3767957 
    9000    1.0152894  0.001206708    20.385002    1.5077048 
    9100    1.0494593  0.016290576      20.3342    1.5584471 
    9200   0.95265144 -0.010974861     20.40605    1.4146874 
    9300   0.93721212 0.0027145787    20.529247      1.39176 
    9400   0.93980265 -0.0085772442    20.476656    1.3956069 
    9500   0.95395438 -0.0057963615    20.474162    1.4166222 
    9600   0.95964953 -0.0078090534    20.479072    1.4250795 
    9700    1.0067262 -0.020681088    20.439582    1.4949884 
    9800    1.0397446  0.017077594    20.377276    1.5440208 
    9900   0.98066976 -0.0071651567    20.431217    1.4562946 
   10000   0.99477325  0.014050157    20.383604    1.4772383 
   10100    1.0424876 -0.0011979729     20.31687     1.548094 
   10200    0.9519313  0.016253159    20.407638     1.413618 
   10300    1.0348569  0.010065564    20.352569    1.5367625 
   10400   0.97138142 -0.018264947    20.388301    1.4425014 
   10500   0.88631652 -0.0054001001    20.486708      1.31618 
   10600   0.96010187  0.015830362    20.400438    1.4257513 
   10700   0.90605398 -0.017587991    20.467297    1.3454902 
   10800   0.90598815 -0.0059994072    20.470881    1.3453924 
   10900    0.9498298 -0.0027366194    20.416024    1.4104973 
   11000   0.91617512 0.0071060111    20.520194    1.3605201 
   11100   0.98458981 0.0012266778    20.441441    1.4621159 
   11200    1.0342822  0.015525166    20.452126     1.535909 
   11300    1.1056432 -0.015022562    20.375022    1.6418802 
   11400    1.0663649 -0.016810628    20.471277    1.5835519 
   11500    1.0204459 0.0092900866    20.528358    1.5153621 
   11600    1.0468479 0.0055791759    20.538536    1.5545692 
   11700    1.0069232 -0.0095497661      20.5396    1.4952809 
   11800    1.0055172 0.0013816778    20.520672     1.493193 
   11900   0.99406224 0.0022224074    20.467034    1.4761824 
   12000    1.0348239 -0.009603288    20.453101    1.5367134 
   12100   0.94807087 -0.017317689    20.498465    1.4078852 
   12200   0.97917288  0.011154969    20.471629    1.4540717 
   12300    1.0072523  0.019757496    20.475137    1.4957697 
   12400   0.90626158  0.013803969    20.637638    1.3457984 
   12500   0.90165429 -0.0053306004    20.648827    1.3389566 
   12600    1.0074572 -0.0045228412    20.559011     1.496074 
   12700    1.0693647 -0.0036426433    20.445948    1.5880066 
   12800    1.0656645  0.020759472     20.49041    1.5825118 
   12900    1.1384596 -0.0010857802    20.318218    1.6906125 
   13000   0.97144843  0.016109191    20.501085    1.4426009 
   13100   0.98202151 -0.0056093515     20.44093    1.4583019 
   13200   0.97447299  0.004163604    20.484777    1.4470924 
   13300    1.0744324 -0.013427911    20.444473    1.5955321 
   13400    1.0062454  0.001414155    20.539596    1.4942744 
   13500    1.0023159  0.010619393    20.515185    1.4884391 
   13600    1.0571487 -0.022748838    20.447133    1.5698658 
   13700    1.0468751 0.0087378279    20.502272    1.5546095 
   13800    1.0505505 -0.0090293497     20.49928    1.5600675 
   13900    1.1074013 -0.0052806687    20.383298    1.6444909 
   14000    1.0152993  0.010962734    20.494334    1.5077194 
   14100    1.0711869  0.013993121    20.451272    1.5907125 
   14200    1.0496706 0.00031038604    20.478479    1.5587609 
   14300    1.0878951 0.0046805841    20.442016    1.6155242 
   14400    1.0638545  0.017485765    20.488858    1.5798239 
   14500    1.0712023 0.00053496882    20.425274    1.5907355 
   14600    1.0111155 -0.0051392371    20.509823    1.5015065 
   14700   0.99155356  -0.02698885    20.538929     1.472457 
   14800    1.0730916 0.0047991844    20.450396     1.593541 
   14900    1.0203576  0.004902487    20.512987     1.515231 
   15000    1.0972101 -0.0063770021    20.421043     1.629357 
   15100    1.0418006  0.012433957    20.538062    1.5470739 
   15200    1.1139488 -0.010290846    20.421227     1.654214 
   15300   0.93689632 -0.014925917    20.694022     1.391291 
   15400    1.0763438 -0.016086916    20.501395    1.5983705 
   15500    1.0017474 -0.019252691    20.565788    1.4875949 
   15600    1.0629953  0.016917894    20.568082     1.578548 
   15700    1.0984129 0.0030203698    20.599838    1.6311431 
   15800    1.1656715 0.0017416896     20.53715    1.7310221 
   15900    1.1658659 -0.011952429    20.460905    1.7313109 
   16000    1.1520489 0.0061998763    20.569709    1.7107926 
   16100    1.1882934  0.014923472     20.50699    1.7646157 
   16200    1.1730035 0.0086560521    20.485207    1.7419102 
   16300    1.0162286 -0.024031546    20.694084    1.5090995 
   16400    1.0587124  0.021009509    20.617641    1.5721879 
   16500    1.0870495  0.015699423    20.465793    1.6142685 
   16600   0.95204945  0.017776239    20.583508    1.4137934 
   16700   0.97559009 0.0061536216     20.48395    1.4487513 
   16800    1.0103797  0.013444339     20.38488    1.5004139 
   16900   0.87553865  -0.01632706     20.53117    1.3001749 
   17000   0.94202482 0.0057327921    20.476661    1.3989069 
   17100   0.85556981  0.020942099    20.578489    1.2705212 
   17200   0.94461365 -0.0036634016    20.521134    1.4027513 
   17300   0.89005949 -0.0028323947    20.553643    1.3217383 
   17400    0.9492708 -0.011489502    20.433083    1.4096671 
   17500   0.96512929 -0.016200861    20.450012     1.433217 
   17600   0.94371284 0.0062748456    20.383474    1.4014136 
   17700    1.0167996  0.017508494     20.39853    1.5099474 
   17800   0.99421319 -0.0070856206    20.411712    1.4764066 
   17900   0.84538611 -0.0001494331    20.531041    1.2553984 
   18000   0.96059317 -0.0072039609    20.392385    1.4264809 
   18100   0.94885242 -0.0051189718    20.499973    1.4090458 
   18200   0.89216698 -0.0069325885    20.562919     1.324868 
   18300   0.93407958   -0.0181741    20.492694    1.3871082 
   18400   0.97967828 0.0051656219    20.482477    1.4548222 
   18500   0.97613808  0.018491319    20.616483    1.4495651 
   18600    1.0575019 -6.0485746e-05    20.536937    1.5703904 
   18700     1.015549 -0.033115301    20.544751    1.5080903 
   18800    1.0456485 0.0010922634    20.479436     1.552788 
   18900   0.99932663 0.0042705209    20.495416        1.484 
   19000     1.064001 -0.0044211906    20.472766    1.5800414 
   19100    1.0408854 -0.024281013    20.501598    1.5457148 
   19200    1.0266358 -0.011057991    20.483683    1.5245542 
   19300   0.97859002 -0.0091568872    20.512686    1.4532062 
   19400   0.98088065   0.00445653    20.531997    1.4566078 
   19500   0.91188081 -0.011342155    20.616229     1.354143 
   19600    0.9680485  0.012440027      20.5059     1.437552 
   19700   0.99643053 0.0047035841    20.470837    1.4796993 
   19800   0.95132744  -0.02334196    20.619208    1.4127212 
   19900   0.93408849 -0.012100382    20.540837    1.3871214 
   20000   0.92697373 -0.0029258355    20.499552     1.376556 
   20100   0.91705949 -0.0016369143    20.493128    1.3618333 
   20200   0.84386121  0.024833001    20.558869    1.2531339 
   20300   0.92105356  0.010906949    20.451423    1.3677645 
   20400   0.90794939 0.0016408796    20.463311    1.3483048 
   20500   0.89352504 -0.012819682    20.482415    1.3268847 
   20600   0.92455018  0.010040904    20.545065     1.372957 
   20700   0.96781171 -0.020756421     20.56711    1.4372004 
   20800     1.013049 -0.0014200955    20.475566    1.5043778 
   20900    1.0228241  0.013332113    20.473127    1.5188937 
   21000    0.9990839 -0.022737152     20.54086    1.4836396 
   21100    1.1059547 0.0085152483    20.361003    1.6423428 
   21200    1.0000055 -0.035852298    20.552654    1.4850082 
   21300    1.1058113  0.016801615    20.469319    1.6421298 
   21400    1.0456913  0.013395744    20.541306    1.5528516 
   21500    1.0229066  0.014682173    20.537572    1.5190163 
   21600   0.97502062 -0.015218777    20.569872    1.4479056 
   21700    1.0695953  0.015445119    20.412384    1.5883491 
   21800   0.99256318 0.0076243029    20.476854    1.4739563 
   21900   0.98230302 -0.016220704    20.426074      1.45872 
   22000   0.92255069 0.0039102822    20.602519    1.3699878 
   22100    1.0243514  0.003663543    20.406031    1.5211618 
   22200    1.0305461 -0.0010987965    20.487411    1.5303609 
   22300    1.0456215  0.012646997    20.450075    1.5527479 
   22400   0.95530671 -0.0076456087    20.523842    1.4186305 
   22500    1.0185033  0.020601751    20.498493    1.5124774 
   22600    1.1181283 0.0076846997    20.388136    1.6604205 
   22700    1.0596683 -0.021972807    20.451087    1.5736075 
   22800    1.0848847 0.0091784255    20.428242    1.6110538 
   22900    1.0512423 -0.0062948701    20.389541    1.5610949 
   23000    1.0102688  0.018133827    20.423673    1.5002492 
   23100    1.0028825 -0.0049592105    20.441702    1.4892806 
   23200    1.0761341 -0.0075493972    20.372782    1.5980591 
   23300    1.1084788 0.0097116913    20.355389    1.6460911 
   23400    1.0148059  -0.01217163    20.414985    1.5069867 
   23500    1.0430275   0.01608663    20.367857    1.5488958 
   23600    1.0593517  0.016785339    20.302381    1.5731372 
   23700    1.0209909 0.0045015031    20.368579    1.5161715 
   23800   0.96598968 8.7140822e-05    20.443455    1.4344947 
   23900    1.0365897 -0.024234412    20.447053    1.5393358 
   24000    1.0386547 -0.020326488     20.35922    1.5424022 
   24100   0.98809241 -0.0020456927    20.334967    1.4673172 
   24200   0.92643944 0.0073532892    20.414814    1.3757626 
   24300   0.92172011 -0.0080521643    20.479125    1.3687544 
   24400   0.95481058 0.0081317499    20.402038    1.4178937 
   24500   0.99621207 -0.005294566    20.410269    1.4793749 
   24600     1.054745 0.0001744734    20.378806    1.5662963 
   24700    1.0204965 -0.0087285197     20.43851    1.5154373 
   24800    1.0572057 -0.0021112803    20.396626    1.5699505 
   24900    1.0380514 0.0063870945    20.453096    1.5415063 
   25000    1.1140882 -0.0016249419    20.439841    1.6544209 
   25100    1.0669188 0.0031601716      20.4763    1.5843745 
   25200     1.059763  0.017439785    20.530167     1.573748 
   25300    1.0449874 0.0016546473    20.506399    1.5518063 
   25400    1.0877794 0.0065807302    20.406058    1.6153524 
   25500   0.96414993  0.016516726     20.43536    1.4317626 
   25600   0.89438622 -0.029063284     20.53654    1.3281635 
   25700   0.96608686 -0.0044331129    20.475703     1.434639 
   25800   0.89670634 -0.0049321941    20.510079    1.3316089 
   25900   0.93725432 -0.0025956743    20.527149    1.3918227 
   26000    0.9165508 -0.018737804    20.478346    1.3610779 
   26100   0.85595934 -0.0078962491    20.582137    1.2710996 
   26200   0.88639907  0.013344249    20.451281    1.3163026 
   26300   0.89476896 -6.2570319e-05    20.480701    1.3287319 
   26400   0.91748022 -0.0032558045    20.496095    1.3624581 
   26500   0.91436635 0.0045965394    20.488981     1.357834 
   26600   0.97272325 -0.015491506    20.432026     1.444494 
   26700    1.0109521 -0.0064425995      20.4112    1.5012639 
   26800   0.94272723  0.019355602    20.481663    1.3999499 
   26900   0.96440861 0.0088325436    20.423793    1.4321468 
   27000   0.97913882 0.0036661659    20.389055    1.4540211 
   27100   0.89677796 0.0027030303    20.462647    1.3317153 
   27200    0.8754585 0.0035352792    20.446986    1.3000559 
   27300   0.88486556  0.016235899    20.449098    1.3140254 
   27400   0.97140589  0.015251433    20.353058    1.4425377 
   27500   0.92302873 -0.0031087749    20.368528    1.3706977 
   27600   0.92328777 -0.0097149357    20.336479    1.3710823 
   27700   0.93180199   0.01202214    20.362062     1.383726 
   27800   0.89584944  -0.01810137    20.425746    1.3303364 
   27900   0.87374713 -0.0074557053    20.502483    1.2975145 
   28000     0.845772 -0.021214266    20.504885    1.2559714 
   28100   0.89582568 0.00059274632    20.494161    1.3303011 
   28200   0.93565901 -0.0029420663    20.437137    1.3894536 
   28300   0.94563125 -1.7704196e-05     20.48125    1.4042624 
   28400   0.87103857 -0.014212283    20.587012    1.2934923 
   28500   0.87983233 -0.018277695    20.555635     1.306551 
   28600    0.9450599  0.014852495    20.447166     1.403414 
   28700   0.97209706 0.0061192185    20.412914    1.4435641 
   28800   0.92511118 -0.0057990167    20.516716    1.3737901 
   28900   0.91963064 -0.0078627382    20.488744    1.3656515 
   29000   0.91679714 -0.00016581966    20.532649    1.3614438 
   29100    1.0142748  0.011014854    20.471208     1.506198 
   29200   0.95950868 -0.0082925578    20.555984    1.4248704 
   29300    1.0568311 -0.0088056006    20.424304    1.5693942 
   29400   0.98929296 0.0057660845    20.512943       1.4691 
   29500   0.98664075 -0.0080817284    20.597075    1.4651615 
   29600    1.0176053 0.0047881712    20.574884    1.5111439 
   29700    1.1502716  0.005750082    20.473307    1.7081533 
   29800    1.0592372 -0.0023148236    20.502561    1.5729672 
   29900   0.95601345 0.0051961691    20.631092      1.41968 
   30000    0.9443018 -0.0026350714    20.553845    1.4022882 
   30100   0.94902205  0.015225598    20.490714    1.4092977 
   30200    1.0053248 0.00011494071     20.41259    1.4929073 
   30300   0.96986475 -0.013739316    20.413738    1.4402492 
   30400   0.92516899 -0.012101376    20.514525    1.3738759 
   30500   0.93601086 -0.011003524    20.442223    1.3899761 
   30600   0.92008099 -0.0080599106    20.496734    1.3663203 
   30700    1.0133885  0.017957271    20.422191    1.5048818 
   30800   0.98468447 -0.0002574655    20.433647    1.4622564 
   30900    1.0228149   0.01559214    20.410381    1.5188801 
   31000    1.0180151 0.0030166633    20.508484    1.5117524 
   31100    1.1110132  0.019170645    20.421851    1.6498545 
   31200    1.0854885  0.017374113    20.412254    1.6119503 
   31300    1.0500398 0.0041759906    20.436243    1.5593091 
   31400     1.005915 -0.011356868    20.421424    1.4937838 
   31500   0.97835837 -0.0084594346    20.526471    1.4528622 
   31600   0.98335017 -0.0019917648    20.516468     1.460275 
   31700    1.1150327 -0.0026378863    20.311335    1.6558235 
   31800   0.93256869 -0.026959638    20.573933    1.3848645 
   31900    1.0282881 -0.012984167    20.520752    1.5270079 
   32000   0.95745067  0.014173535    20.583846    1.4218142 
   32100     1.115807 0.0037665629    20.414515    1.6569735 
   32200   0.98521837 -0.014264426    20.622528    1.4630493 
   32300    1.0955626 0.0010046899    20.416884    1.6269105 
   32400   0.94073103  0.014170448     20.58569    1.3969856 
   32500   0.99920683 -0.014902948    20.488685    1.4838221 
   32600    1.0826738 -0.0047068324    20.468991    1.6077706 
   32700    1.0870956 -0.0064694352    20.444248    1.6143369 
   32800     1.065707 -0.0075298657    20.473387    1.5825749 
   32900    1.0053507  -0.00349294    20.523918    1.4929458 
   33000    1.0331652 -0.024368642    20.521693    1.5342504 
   33100    1.0554027  0.027773407    20.430986     1.567273 
   33200      1.05052 -0.0025058192    20.440729    1.5600222 
   33300    1.0603776  0.011027748    20.403784    1.5746607 
   33400    1.0066231 0.0062722813    20.476729    1.4948353 
   33500   0.92695329 -0.014012101    20.566428    1.3765256 
   33600    1.0734084 0.0016128959    20.416981    1.5940114 
   33700    1.0453988   0.02778795    20.429559    1.5524172 
   33800   0.99772375 -0.0081769166    20.465229    1.4816198 
   33900    1.0125681 -0.015468143    20.464075    1.5036636 
   34000    1.0954712 -0.0013427843    20.385555    1.6267747 
   34100   0.99840701 -0.0077770609    20.551683    1.4826344 
   34200   0.91945588  0.010499759    20.600958     1.365392 
   34300   0.94404982 -0.017792762    20.545852     1.401914 
   34400    1.0169996 -0.0029983907    20.471313    1.5102444 
   34500    1.0388527 0.0044063143      20.4188    1.5426963 
   34600    1.0346431 -0.026209521    20.409165    1.5364449 
   34700   0.97056271 -0.024756992    20.465984    1.4412856 
   34800    1.0061387 -0.012684008    20.341939     1.494116 
   34900     1.002471 0.0066746487    20.371583    1.4886695 
   35000   0.99447875 -0.012983751    20.430922    1.4768009 
   35100    1.0485053 0.0071911677    20.407565    1.5570303 
   35200    1.0867355 -0.0034674137     20.34412    1.6138022 
   35300   0.99684495 -0.015339524     20.49654    1.4803148 
   35400    1.0501977 0.0082151262    20.352813    1.5595436 
   35500   0.96298879  0.023214762     20.44326    1.4300384 
   35600    1.0087416 -0.0056241034    20.395647    1.4979813 
   35700   0.97339985   0.02850216    20.369708    1.4454988 
   35800    0.9382607 -0.003206674    20.358072    1.3933171 
   35900   0.94927266 -0.010608152    20.370641    1.4096699 
   36000   0.94970883  0.005889613     20.36294    1.4103176 
   36100    1.0049069 0.00063560037    20.365521    1.4922868 
   36200   0.95637365  0.020789934    20.423278    1.4202149 
   36300   0.95149773 0.0059378299    20.410172    1.4129741 
   36400   0.90111073 0.0032785491    20.461329    1.3381494 
   36500   0.98375298 0.0060173917    20.470189    1.4608732 
   36600   0.91132268 -0.020276117    20.534606    1.3533142 
   36700   0.94235931 -0.016405033    20.409485    1.3994036 
   36800   0.88976426 -0.0031606437    20.449421    1.3212999 
   36900   0.86425134 -0.015009232    20.560824    1.2834132 
   37000   0.88762993 -0.018220937    20.473964    1.3181304 
   37100   0.85228338  0.021481374    20.454781    1.2656408 
   37200   0.87418979 0.0042966051    20.507007    1.2981718 
   37300   0.84532064 0.0088474426    20.570418    1.2553011 
   37400   0.94256357 0.0071705527    20.513154    1.3997069 
   37500   0.97012965 -0.0089395425    20.456198    1.4406425 
   37600   0.98335827  0.005249421    20.487884     1.460287 
   37700     1.021092 -0.0052643399    20.514054    1.5163217 
   37800    1.0511065 -0.014731512    20.557368    1.5608931 
   37900    1.1018587  0.011511226    20.474081    1.6362602 
   38000    1.0183491 -0.00099520515    20.592502    1.5122484 
   38100    1.0245298  0.016494351    20.574406    1.5214267 
   38200   0.99414232  0.016908835    20.518558    1.4763013 
   38300   0.97065284  0.010183024    20.513596    1.4414195 
   38400    1.0614709  0.011127324    20.483043    1.5762843 
   38500    1.0520401 -0.00015815014    20.540456    1.5622795 
   38600    1.0823918 -0.019711935    20.483034    1.6073518 
   38700    1.0568962 -0.007579306    20.491406    1.5694908 
   38800    1.0304337  0.013133187     20.56898     1.530194 
   38900    1.1443243  -0.01018684    20.435507    1.6993216 
   39000    1.0580939 0.0075388149    20.620169    1.5712694 
   39100    1.0450766 -0.0033880946    20.492787    1.5519388 
   39200    1.0124273 -0.012093564    20.563773    1.5034546 
   39300    1.0850766 -0.0072572021    20.385528    1.6113387 
   39400   0.93841973 -0.036431778    20.548987    1.3935533 
   39500     1.066948  0.010395408     20.44501    1.5844178 
   39600    1.0620221 0.0027980442    20.469235    1.5771028 
   39700    1.0022988 -0.0068493836    20.525738    1.4884138 
   39800    1.0677602 0.0024816159      20.4701     1.585624 
   39900    1.0198023 -0.021806625    20.503659    1.5144064 
   40000   0.98049381 -0.0013169297    20.547575    1.4560333 
   40100   0.95842814 0.0089236147    20.509251    1.4232658 
   40200    1.0612656 -0.014489999     20.42906    1.5759795 
   40300    1.0750931 0.0052023508    20.478775    1.5965133 
   40400    1.1450797 -0.002193982    20.405378    1.7004434 
   40500    1.0864041 8.7088228e-05    20.488953      1.61331 
   40600    1.0488265 0.0048226216    20.486324    1.5575074 
   40700   0.99941654  0.021837383    20.495519    1.4841336 
   40800   0.94664999 -0.018898315     20.57753    1.4057752 
   40900    0.9972369 -0.0072177055    20.507888    1.4808968 
   41000    1.0847851  0.012444883    20.462832    1.6109059 
   41100    1.0976754 -0.015063801    20.536824    1.6300479 
   41200    1.2279283  0.014076881    20.399295    1.8234735 
   41300    1.1316014 0.0077059288     20.58057    1.6804281 
   41400    1.1237215 0.0023163678    20.525976    1.6687264 
   41500    1.1606939 -0.014642669    20.473107    1.7236305 
   41600    1.1144726 0.00020939752    20.583797    1.6549918 
   41700    1.1584784 0.0073618671    20.504699    1.7203404 
   41800    1.1730617 -0.0054987164    20.489102    1.7419967 
   41900    1.1530709  0.023864588    20.547326    1.7123102 
   42000    1.1269565  0.020403379    20.499924    1.6735304 
   42100    1.1907051 -0.005487465    20.390295    1.7681971 
   42200     1.095702 -0.0078931975    20.497868    1.6271174 
   42300    1.1076212 -0.0061216939    20.468091    1.6448175 
   42400     1.130775  0.015079345    20.487107    1.6792009 
   42500    1.1169563 0.0023345343    20.509063    1.6586801 
   42600    1.0668552 -0.003461928    20.654279    1.5842799 
   42700    1.1729852  0.008756118    20.499305     1.741883 
   42800    1.0976292 0.0090551983    20.593598    1.6299794 
   42900    1.1201491 -0.020088269     20.56767    1.6634215 
   43000     1.144407 0.0036052417    20.432163    1.6994444 
   43100   0.99772641 -0.034093644    20.691361    1.4816237 
   43200    1.0954326 -0.0070623945    20.516153    1.6267174 
   43300     1.100154 0.0058227979     20.51228    1.6337287 
   43400    1.1833103 -0.016108757    20.422944    1.7572158 
   43500    1.1224866 0.0049729258     20.51819    1.6668926 
   43600    1.1919409 -0.020960176    20.422049    1.7700323 
   43700    1.0979796 0.0017377284     20.48418    1.6304997 
   43800    1.0667344 -0.008600221    20.528252    1.5841006 
   43900    1.0530797 -0.0063464383    20.494537    1.5638233 
   44000    1.0403599 -0.0021872114    20.462077    1.5449345 
   44100     1.034783  0.020917903    20.451034    1.5366528 
   44200   0.94356516 0.0052982862     20.65894    1.4011943 
   44300    1.0844806 -0.0031555054    20.546284    1.6104536 
   44400    1.1443402  0.009018211     20.49577    1.6993453 
   44500    1.1892242 0.0030901778    20.474644    1.7659979 
   44600    1.2420832   0.01306796    20.432833    1.8444935 
   44700    1.1383761 -0.019483023    20.491203    1.6904885 
   44800    1.1355194 0.00095268048    20.511529    1.6862464 
   44900    1.2034019 -0.0066780802    20.426872    1.7870518 
   45000    1.0457714 -0.032064271    20.630362    1.5529706 
   45100    1.1287361 0.0055323847    20.488641    1.6761731 
   45200    1.0892593 0.0090269759    20.548933      1.61755 
   45300    1.1164089 -0.0070819079    20.472676    1.6578673 
   45400    1.1429701 0.0063169359    20.474719    1.6973106 
   45500    1.0218735  -0.01247522    20.554493    1.5174822 
   45600    1.0357526 0.0098422148    20.472139    1.5380926 
   45700    1.0296928 0.0072754816    20.481739    1.5290938 
   45800     1.006652 -0.012262002     20.53484    1.4948782 
   45900   0.94589452 -0.021219467    20.622859    1.4046534 
   46000    1.0530248 -0.0076482372    20.477463    1.5637418 
   46100    1.1660868  -0.00642671    20.412258    1.7316389 
   46200    1.0506645  -0.01472787    20.592717    1.5602368 
   46300    1.1399611 -0.0038884378      20.4952    1.6928423 
   46400    1.1735285  0.018669207    20.399898    1.7426899 
   46500    1.0395081 -6.3112883e-05    20.569269    1.5436695 
   46600    1.1222211 -0.011917278    20.435498    1.6664984 
   46700    1.1343631 -0.0093388641    20.432663    1.6845291 
   46800     1.129144 -0.014290781       20.414    1.6767788 
   46900    1.0497894 -0.0038722423    20.533547    1.5589372 
   47000    1.0785507 0.0074205351    20.472319    1.6016478 
   47100    1.0900774 -0.012059852    20.465839    1.6187649 
   47200    1.1228594  0.013271436    20.447556    1.6674462 
   47300     1.105876 -0.0047139163    20.471974    1.6422259 
   47400    1.0470997 0.0028142894    20.574293    1.5549431 
   47500    1.1011512 0.0036297617    20.336628    1.6352095 
   47600    1.0422183 -0.0047842747    20.381511    1.5476942 
   47700    1.0221877  0.025315664    20.381574    1.5179488 
   47800    1.0390783 -0.0063210262    20.374461    1.5430313 
   47900   0.95908869 0.0065801831     20.45209    1.4242467 
   48000   0.89969686 -0.00052205087    20.505817    1.3360498 
   48100   0.93383966 0.0026758973    20.432573    1.3867519 
   48200   0.90955439  0.017434537    20.397751    1.3506883 
   48300     0.906685 -0.0054877992    20.399759    1.3464272 
   48400   0.91209532  0.018348645    20.397865    1.3544616 
   48500   0.96516187 -0.013840935    20.421138    1.4332654 
   48600   0.98284984 -0.0046716477    20.362538     1.459532 
   48700    1.0182306 -0.00027141115    20.305272    1.5120724 
   48800   0.92021308 -0.010767322    20.427344    1.3665164 
   48900    1.0066135 -0.0081892096    20.304172    1.4948211 
   49000   0.96823736 0.00096475693    20.388825    1.4378325 
   49100    1.0689549 -0.0023558481    20.326234     1.587398 
   49200   0.96654494  0.015576089    20.487917    1.4353192 
   49300   0.97178233  0.016250832    20.431666    1.4430968 
   49400   0.96869178  0.021244039    20.469838    1.4385073 
   49500   0.98107818 -0.0073401132    20.449358    1.4569011 
   49600   0.99981778 0.0008354395    20.418944    1.4847294 
   49700   0.94191488 0.0049880421    20.478206    1.3987436 
   49800   0.94228093  -0.01393568    20.498317    1.3992872 
   49900   0.91495144 0.0010652354    20.481988    1.3587029 
   50000   0.90822316 -0.0078560445    20.434878    1.3487114 
   50100   0.92860633 0.0087279018    20.452056    1.3789804 
   50200   0.92163801 0.00059576702    20.409599    1.3686324 
   50300   0.96045141 0.0054807647    20.385509    1.4262703 
   50400   0.93176902 -0.00069665949    20.411913     1.383677 
   50500   0.92514098 -0.018677328    20.502467    1.3738344 
   50600    0.9854206 0.00021183986    20.452014    1.4633496 
   50700   0.92248548 0.0031899681    20.479341    1.3698909 
   50800   0.94014771 -0.0069951126    20.496465    1.3961193 
   50900    1.0723907  0.010250035    20.418679    1.5925002 
   51000     1.026266  0.011090037    20.467616     1.524005 
   51100    1.0071721 -0.010989135    20.443856    1.4956506 
   51200   0.99793726  -0.01651922    20.433971    1.4819368 
   51300    1.0317843 0.0078730014    20.398038    1.5321997 
   51400   0.98506322 0.0047535088     20.45671    1.4628189 
   51500    1.0125065 -0.00097326271    20.437031    1.5035721 
   51600    1.0052997  -0.02850191    20.467088      1.49287 
   51700    1.0871265 -0.003157235    20.378661    1.6143828 
   51800   0.99569015 0.0074116473    20.527247    1.4785999 
   51900    1.0839381 0.0033878074    20.416568     1.609648 
   52000    1.0580919 -0.0041626364    20.457709    1.5712665 
   52100    1.0678944 0.0016651306     20.52757    1.5858232 
   52200    1.1416209 -0.033160154    20.423519     1.695307 
   52300    1.0718508  0.009416281    20.562955    1.5916984 
   52400    1.0669581  0.015017583    20.600761    1.5844327 
   52500    1.0907374 -0.0026769985    20.486533     1.619745 
   52600    1.1023598  0.034929729    20.475393    1.6370043 
   52700    1.0686729 -0.010011894    20.573158    1.5869792 
   52800    1.0872202 0.0046535232    20.455978     1.614522 
   52900     1.031179 -0.0023601246    20.493351    1.5313008 
   53000   0.98505257 -0.0079512306    20.547616    1.4628031 
   53100    1.0364369 -0.005537744    20.423591    1.5391089 
   53200    1.0096939 -0.0014914352    20.459733    1.4993954 
   53300   0.99439892 -0.0013791233    20.548066    1.4766824 
   53400    1.0786796 -0.012778383    20.400833    1.6018392 
   53500    0.9723623 -0.0036788917     20.50273     1.443958 
   53600   0.97588353 -0.0096436132    20.363783     1.449187 
   53700   0.92000717 -0.0090723157    20.426462    1.3662107 
   53800    0.9280764 0.0048078141    20.440382    1.3781935 
   53900   0.96406767  0.020481879    20.395063    1.4316405 
   54000   0.95071231 -0.012594745    20.387062    1.4118078 
   54100   0.91229247 -0.0093769876     20.47673    1.3547543 
   54200   0.96701487 -0.0018004745     20.44739    1.4360171 
   54300   0.93778015 -0.0067378811    20.417965    1.3926035 
   54400   0.96818062 0.0055087502    20.401293    1.4377482 
   54500   0.99610116 0.0059058745    20.354108    1.4792102 
   54600   0.99092508  -0.01096824    20.373926    1.4715237 
   54700    1.0040443 -0.0030183649    20.426064    1.4910057 
   54800    1.0408545 -0.0038576824    20.407248     1.545669 
   54900    1.0167059 -0.0039402983    20.383176    1.5098083 
   55000    1.0169235 -0.0074335886    20.427179    1.5101314 
   55100   0.98991978 -0.018987457    20.490629    1.4700309 
   55200    1.0369693 -0.0011398976    20.414395    1.5398993 
   55300    1.0454545 0.0048682388    20.498628       1.5525 
   55400    1.0746741 -0.013351599    20.402746    1.5958911 
   55500    1.0556534 -0.0085312657    20.430636    1.5676453 
   55600    1.0341028  0.016815289    20.415557    1.5356427 
   55700    1.0853867 0.0013121856    20.375228    1.6117992 
   55800    1.0518779  0.026340434    20.422357    1.5620386 
   55900    1.1059136 -0.00095286625    20.370285    1.6422817 
   56000    1.1529461 0.0017503332      20.3957     1.712125 
   56100    1.1642079  0.023595511    20.415027    1.7288487 
   56200    1.1261065 -0.0054851495    20.434671    1.6722682 
   56300    1.1060965 -0.0077517866    20.407293    1.6425534 
   56400    1.0607035 -0.0092894764    20.501981    1.5751447 
   56500    1.0073926 -0.0075779669    20.550402    1.4959781 
   56600    1.0411654 0.0060467912    20.509048    1.5461306 
   56700    1.0561174 -0.001331241    20.388668    1.5683343 
   56800     1.030936 0.00082572463    20.363541      1.53094 
   56900    1.0063176 -0.0068217542    20.449282    1.4943817 
   57000   0.96615065 -0.006944456    20.354459    1.4347337 
   57100   0.85473225 -0.0024787756    20.514184    1.2692774 
   57200   0.87746231 0.0024353224    20.518924    1.3030315 
   57300   0.84483537  0.001309453    20.572408    1.2545805 
   57400   0.91898115 -0.013637593    20.443565     1.364687 
   57500   0.85804242 0.0082765533     20.51334     1.274193 
   57600   0.92408636 0.0011819063    20.480564    1.3722682 
   57700   0.99791471   0.01009103    20.459847    1.4819034 
   57800   0.91415411 0.0091261786    20.600466    1.3575189 
   57900   0.95815519 -0.014862854    20.435979    1.4228605 
   58000    1.0085072  0.020406588    20.390203    1.4976332 
   58100    0.9769701 -0.0044515941    20.445026    1.4508006 
   58200    1.0055956 -0.00023519228    20.419607    1.4933094 
   58300    1.0567856 0.0031414352    20.436799    1.5693265 
   58400    1.0012294 -0.0079620525    20.426876    1.4868257 
   58500    1.0630091 0.00024205722    20.414766    1.5785685 
   58600    1.0738757  -0.03042627    20.410917    1.5947054 
   58700    1.1100241  0.007926713    20.391951    1.6483858 
   58800    1.1203196  0.008009682    20.306726    1.6636746 
   58900     1.054992 -0.018221637     20.50104    1.5666632 
   59000    1.0711217  0.011816261    20.453652    1.5906157 
   59100    1.1000051 -0.0096261055    20.387819    1.6335075 
   59200    1.0633738 -0.0052622516    20.469391      1.57911 
   59300    1.1404105 0.0078204532    20.389971    1.6935096 
   59400     1.117645  0.011987671     20.40534    1.6597028 
   59500    1.1368964   0.01687522    20.415577    1.6882912 
   59600    1.1916552  0.011653841    20.357036     1.769608 
   59700    1.1212373 0.0076166388    20.428661    1.6650373 
   59800    1.1359012  0.006219536    20.302066    1.6868133 
   59900    1.0505488 0.0060039109    20.388678    1.5600649 
   60000    1.0405863  -0.02528046     20.39279    1.5452706 
   60100   0.93611297 -0.012165298     20.41967    1.3901278 
   60200   0.96096691 -0.010568872    20.380124    1.4270359 
   60300   0.96253963  0.031350608    20.421952    1.4293714 
   60400   0.91061064 -0.015358327    20.537501    1.3522568 
   60500   0.98830754 0.0060055733    20.449591    1.4676367 
   60600    1.0677409  0.013789267    20.361605    1.5855953 
   60700   0.92702043 -0.002059816    20.480938    1.3766253 
   60800    1.0329047 -0.008614987    20.396733    1.5338635 
   60900   0.90780341 0.0063961098    20.590539    1.3480881 
   61000    0.9669369 -0.0018802982    20.567751    1.4359013 
   61100     1.041552 0.0030502467    20.498841    1.5467047 
   61200   0.97933992 -0.009761856    20.561167    1.4543198 
   61300    1.0111561 0.0064546349    20.505044    1.5015668 
   61400   0.99429839 -0.001687747    20.506616    1.4765331 
   61500     1.011597 0.0085608284    20.493163    1.5022216 
   61600    1.0160569 -0.032960484     20.54644    1.5088444 
   61700    1.0102674  0.035708549    20.574296    1.5002471 
   61800    1.0097137 -0.0074770855    20.513027    1.4994249 
   61900    1.0358157 -0.0070490674    20.475062    1.5381864 
   62000     1.005828  0.037747829    20.515799    1.4936546 
   62100   0.96443312  0.015243725    20.631831    1.4321832 
   62200    1.0193057 -0.014531889    20.530765     1.513669 
   62300   0.92453269 -0.014900415    20.567536     1.372931 
   62400   0.99402586 0.0065361473    20.387238    1.4761284 
   62500   0.98517079 -0.0068963655    20.384851    1.4629786 
   62600   0.89563609  0.012755572    20.530459    1.3300196 
   62700    0.9836678 -0.010701424    20.446437    1.4607467 
   62800    1.0522667  0.016952476    20.430759    1.5626161 
   62900    1.0300476 -0.0096080106    20.434893    1.5296207 
   63000   0.93675054 -0.0074740936    20.649598    1.3910746 
   63100   0.98575865 -0.009503374    20.513999    1.4638516 
   63200    1.0745461 0.0031098905    20.441365     1.595701 
   63300    1.0995746 -0.006197438    20.478462    1.6328682 
   63400    1.0653955  0.005535965    20.446105    1.5821123 
   63500    1.0183085 -0.0051119669    20.537901    1.5121881 
   63600    1.0011483 -0.0052462245    20.524077    1.4867052 
   63700   0.94790368 0.0014478453    20.501321     1.407637 
   63800   0.97914544 -0.0062018746    20.440614     1.454031 
   63900   0.92747387 -0.0025234147    20.422189    1.3772987 
   64000   0.87915482  0.017013828    20.533561    1.3055449 
   64100   0.88536449 -0.0069428011    20.440961    1.3147663 
   64200   0.92229364  0.014220839    20.415766     1.369606 
   64300   0.92011749 -0.017268043    20.440138    1.3663745 
   64400   0.86574277 0.0088329696    20.502999     1.285628 
   64500   0.96084376 -0.0043978325    20.478709     1.426853 
   64600   0.87355737 -0.025829832    20.510432    1.2972327 
   64700   0.86084715 0.0021999943    20.488254     1.278358 
   64800   0.95069325 0.0027841769    20.368202    1.4117795 
   64900   0.94675559 0.0021764076    20.401835    1.4059321 
   65000   0.92144113  0.021317021    20.492897    1.3683401 
   65100   0.89382087 0.0030989917    20.534451     1.327324 
   65200   0.86053184 0.00016268524    20.549268    1.2778898 
   65300   0.87208008 0.0010548537    20.370254    1.2950389 
   65400   0.84428593   0.01025842    20.446747    1.2537646 
   65500   0.86450392  0.019316016    20.411225    1.2837883 
   65600   0.85345068  -0.01442112    20.407637    1.2673743 
   65700   0.87088487 0.0045915094    20.437639     1.293264 
   65800   0.94689217 0.0077054656    20.366353    1.4061349 
   65900   0.89039778 0.0072846236    20.431037    1.3222407 
   66000   0.95473338 -0.021090507    20.429073    1.4177791 
   66100   0.97940037 -0.0022232977    20.389706    1.4544096 
   66200     1.059981  -0.01283653    20.273892    1.5740717 
   66300   0.92534806 -0.00086253985    20.349945    1.3741419 
   66400    0.8661841 -0.0064763129    20.401323    1.2862834 
   66500   0.85414596 -0.010295022    20.408014    1.2684068 
   66600   0.93149906 -0.0022244427    20.374338    1.3832761 
   66700   0.99159931 -0.0039438383     20.39624     1.472525 
   66800    1.0316318 -0.0042696167    20.433454    1.5319733 
   66900    1.0197762 0.0092147667    20.426927    1.5143676 
   67000    1.0917175 -0.0097368288    20.362983    1.6212005 
   67100     1.042301 -0.015831382    20.465941     1.547817 
   67200    1.0584186  0.009452632     20.44613    1.5717516 
   67300    1.0837149  0.026096348    20.430196    1.6093166 
   67400    1.0951176 -0.018516781    20.409756    1.6262496 
   67500    1.0950682 0.0035232632    20.490232    1.6261763 
   67600    1.0730745 -0.011478904     20.42908    1.5935156 
   67700     1.028938 -0.018337058    20.479202    1.5279729 
   67800    0.9983915 -0.025956534    20.510322    1.4826114 
   67900    1.0238324  0.003639009    20.381969    1.5203911 
   68000    1.0306026 -0.0034184445    20.414871    1.5304448 
   68100   0.99946983 -0.0079064163    20.553724    1.4842127 
   68200    1.0616638 -0.0039800422    20.452512    1.5765708 
   68300    1.1108714  0.006626469    20.364987     1.649644 
   68400   0.97670958 -0.0064773255    20.525694    1.4504137 
   68500    1.0240708 -0.011944769    20.465471    1.5207452 
   68600    1.0467774 0.0023604484     20.49752    1.5544644 
   68700   0.97741243 -0.025678849    20.618541    1.4514575 
   68800    1.0727348 0.0077484107    20.414105    1.5930112 
   68900    1.0851459 -0.001191475    20.401836    1.6114417 
   69000    1.0458777 0.0037457628    20.407991    1.5531284 
   69100    1.0674379 -0.016568785    20.401346    1.5851453 
   69200    1.0425717 -0.018977348    20.421618     1.548219 
   69300     1.073779 0.0072086142    20.358605    1.5945618 
   69400    1.0178948 0.0010958158    20.373976    1.5115737 
   69500   0.98416272 -0.010063386    20.419403    1.4614816 
   69600   0.92689288 -0.00062065043    20.496888    1.3764359 
   69700   0.92141886 -0.008783044    20.404013     1.368307 
   69800   0.93992908 -0.00031519149    20.401431    1.3957947 
   69900   0.97976722 -0.0025821743    20.399638    1.4549543 
   70000   0.94418178 0.0081703022    20.498553    1.4021099 
   70100   0.98038059 -0.010735646    20.464834    1.4558652 
   70200   0.99918976  0.011218052    20.456787    1.4837968 
   70300    1.0782563 -0.011642954    20.367363    1.6012107 
   70400    1.0162387 0.0010733232    20.396523    1.5091145 
   70500   0.99987046 0.0078558272    20.406485    1.4848076 
   70600    1.0641016 -0.0081720527    20.349803    1.5801909 
   70700    1.0228759 -0.017983717    20.389637    1.5189707 
   70800   0.99178491  0.002626552    20.436759    1.4728006 
   70900   0.95266344 -0.012990694    20.484051    1.4147052 
   71000   0.95891465 0.0033386471     20.46559    1.4239883 
   71100    1.0257699 -0.012448565    20.422239    1.5232683 
   71200     1.053074 0.0046457687    20.474261    1.5638148 
   71300   0.95888939 -0.015736983    20.497897    1.4239507 
   71400    1.0207899 -0.00086544244    20.397334    1.5158729 
   71500    1.0255125 -0.0018773657    20.382326     1.522886 
   71600    0.9581011 -0.012448449    20.431128    1.4227801 
   71700    0.8940599 -0.0095800854     20.49753     1.327679 
   71800   0.87001457 -0.0015288256    20.566785    1.2919716 
   71900   0.89320669 -0.0038488741    20.479422    1.3264119 
   72000   0.92463959 3.4633976e-05    20.450445    1.3730898 
   72100   0.89200255  0.016998632    20.458567    1.3246238 
   72200   0.90841401 0.0098116374    20.369812    1.3489948 
   72300   0.89572761  0.002319981    20.462586    1.3301555 
   72400   0.90828501   0.01408623    20.463378    1.3488032 
   72500   0.95358018 0.0018822008    20.404806    1.4160666 
   72600   0.88488208  0.012911569    20.467957    1.3140499 
   72700   0.94655248 0.0061162811    20.495849    1.4056304 
   72800   0.97273992 0.0083256848    20.413971    1.4445188 
   72900   0.93005905  0.015539571    20.436256    1.3811377 
   73000   0.88515398 -0.0093631723    20.460542    1.3144537 
   73100   0.88942944 -0.023474964    20.490184    1.3208027 
   73200   0.87870621 0.0076725276    20.447039    1.3048787 
   73300   0.89963766 0.0018437335    20.471621    1.3359619 
   73400     0.905306 -0.0011878313    20.414946    1.3443794 
   73500   0.81978665 0.0050767328     20.55262    1.2173832 
   73600   0.86351846 -0.013797914    20.499105    1.2823249 
   73700   0.87468631 -0.010537546    20.414965    1.2989092 
   73800   0.91302621  0.039427947    20.388653    1.3558439 
   73900   0.89659655 0.0055873059    20.403023    1.3314459 
   74000   0.89023325   0.02165053    20.487087    1.3219964 
   74100   0.95809845  -0.00106684    20.442554    1.4227762 
   74200   0.95548114 -0.015023767    20.375672    1.4188895 
   74300    0.9189625 -0.00036483961    20.451278    1.3646593 
   74400   0.83983719 -0.017196908    20.504222    1.2471582 
   74500   0.85228434 -0.025485038    20.489478    1.2656422 
   74600    0.8985633 -0.010149305    20.525686    1.3343665 
   74700    0.9856264 -0.0077655691    20.478405    1.4636552 
   74800   0.91038607 -0.014931436    20.486214    1.3519233 
   74900   0.96380969 -0.0047717797    20.432524    1.4312574 
   75000   0.98870993 0.0067011687    20.484529    1.4682342 
   75100   0.90847185 0.0059131267    20.474475    1.3490807 
   75200   0.98218823 -0.00023740975    20.433348    1.4585495 
   75300   0.97806073 0.0055677988    20.426121    1.4524202 
   75400   0.94479401 -0.017610999    20.481019    1.4030191 
   75500   0.97886959  0.011123348    20.485533    1.4536213 
   75600   0.99661359 -0.018547809    20.386819    1.4799712 
   75700    1.0162675 0.0056488275    20.459307    1.5091572 
   75800    0.9924158 0.0090709058    20.456829    1.4737375 
   75900    1.0524891   0.01148796    20.434069    1.5629463 
   76000    1.0997983 -0.0077928445    20.450519    1.6332005 
   76100    1.0341606 -0.033678609    20.582868    1.5357285 
   76200       1.1156  0.002791575    20.459172    1.6566659 
   76300    1.1083065 0.0081544221    20.469803    1.6458352 
   76400    1.0227788 -0.019189418    20.607714    1.5188266 
   76500    1.1828363 0.0078331334    20.400989    1.7565119 
   76600    1.1086357  0.020277835    20.457372    1.6463241 
   76700    1.0602851 0.0077403337    20.539948    1.5745234 
   76800    1.1549059  0.013832835    20.395025    1.7150353 
   76900    1.0891159  0.017888259    20.401161    1.6173372 
   77000   0.98541721  0.010739877    20.589477    1.4633446 
   77100     1.089595 0.0072875103    20.477806    1.6180486 
   77200    1.0798994 0.0039145531    20.482065    1.6036507 
   77300    1.0460126  0.012592113    20.453724    1.5533287 
   77400   0.97755779  0.023142266    20.491231    1.4516733 
   77500    1.0528496  0.010460789    20.452552    1.5634817 
   77600    1.0653248 0.0078249549    20.449959    1.5820074 
   77700    1.0836725   0.01906313     20.37241    1.6092537 
   77800    1.0008409 -0.017249571    20.447349    1.4862488 
   77900    1.0110706  0.011924089    20.368707    1.5014398 
   78000    1.0046802 -0.002881081    20.408513      1.49195 
   78100    0.9196681 -0.011250216    20.443883    1.3657071 
   78200   0.83716482 0.0087088718    20.518267    1.2431898 
   78300   0.83117025 -0.016638177    20.455987    1.2342878 
   78400   0.88332036 -0.013726273    20.471472    1.3117307 
   78500   0.92595526  0.012262375     20.39933    1.3750436 
   78600   0.87431484 -0.0091169407    20.438905    1.2983575 
   78700   0.93302369  0.008124779    20.335111    1.3855402 
   78800   0.97409185 -0.0017447551    20.409794    1.4465264 
   78900   0.96205839 -0.0058966858     20.44903    1.4286567 
   79000   0.95550208   0.02233255    20.475494    1.4189206 
   79100   0.95490575  0.017491565     20.50842     1.418035 
   79200    1.0731687  0.010725865    20.370232    1.5936555 
   79300    1.0402948 0.0023604048    20.470479    1.5448378 
   79400    1.0558746 -0.0076457608     20.43596    1.5679738 
   79500    1.0232707  0.014877636    20.559424     1.519557 
   79600    1.0380316 -0.00017307942    20.585979    1.5414769 
   79700    1.0984296    0.0200458    20.537296    1.6311679 
   79800    1.0610663 -0.011886203    20.493175    1.5756835 
   79900    1.0786757  0.012760252    20.504053    1.6018334 
   80000    1.0588666 -0.0042881078    20.487379    1.5724169 
   80100    1.1018624 -0.014272964    20.423495    1.6362657 
   80200    1.0641501  0.018202856     20.49884     1.580263 
   80300    1.0660628 0.0084610184    20.459264    1.5831032 
   80400    1.0672402 -0.0034234818    20.569077    1.5848517 
   80500    1.1217701  0.013988654    20.511238    1.6658286 
   80600    1.1180657 -0.019333686    20.524034    1.6603275 
   80700    1.1369356  0.005496908    20.497667    1.6883494 
   80800    1.1473756  0.033343214      20.4623    1.7038527 
   80900    1.0377354 -0.022206715    20.549784     1.541037 
   81000    1.0864721 -0.012680318    20.500267     1.613411 
   81100    1.0605669 0.0044469274    20.506383    1.5749418 
   81200     1.084354 0.0027479265    20.511519    1.6102657 
   81300    1.0854359 -0.0032652093    20.456125    1.6118724 
   81400    1.0745703 -0.0062716507    20.392951    1.5957369 
   81500    1.0887935  0.019680648    20.358609    1.6168584 
   81600    1.1083459  0.017679768    20.317983    1.6458937 
   81700    1.0832414  0.024605712    20.372437    1.6086135 
   81800    1.1215454 -0.024523833    20.363371    1.6654949 
   81900    1.0355846 -0.0047721983    20.511292    1.5378431 
   82000     1.080462 0.0088380884    20.495283    1.6044861 
   82100    1.1230931 -0.0035150996    20.509264    1.6677932 
   82200    1.0734762  0.011088612    20.523674    1.5941121 
   82300     1.143477 -0.016968795    20.503042    1.6980633 
   82400    1.1574814 -0.0064261079     20.42575    1.7188599 
   82500    1.0615193 0.0090629402    20.527765    1.5763561 
   82600    1.0566019  0.019800184    20.520385    1.5690538 
   82700    1.0093644 -0.0087251948    20.502497    1.4989061 
   82800   0.94969073 -0.0086585936      20.4757    1.4102907 
   82900    1.0562674 -0.0060430761    20.411709    1.5685571 
   83000    1.0112601  0.011551551    20.570869    1.5017212 
   83100   0.99095153  0.015563571    20.528735     1.471563 
   83200    1.0080595 -0.023548057    20.530475    1.4969683 
   83300    0.9913913   0.00347327      20.4934    1.4722161 
   83400    1.0191534 -0.0049593222     20.40978    1.5134428 
   83500    0.9886149 -0.0071451282    20.405197    1.4680931 
   83600   0.95139183 -0.0044760036    20.434495    1.4128169 
   83700   0.90843769 0.0098724582    20.459152      1.34903 
   83800   0.84667727 -0.0071691465    20.468654    1.2573157 
   83900   0.86465664 -0.0058488322    20.526355    1.2840151 
   84000   0.89526829 -0.013918385    20.479312    1.3294734 
   84100   0.90235484   0.02411249    20.407033    1.3399969 
   84200   0.96200418  0.018669598    20.369237    1.4285762 
   84300   0.89708844  0.014269209    20.421255    1.3321763 
   84400   0.92870428 0.0096955402    20.440633    1.3791259 
   84500   0.90100533 0.0063453955    20.432798    1.3379929 
   84600   0.86692446 -0.0085690195    20.449631    1.2873828 
   84700   0.89372675    0.0171694    20.362272    1.3271842 
   84800   0.84736954  0.015654062    20.410128    1.2583438 
   84900   0.89110912 0.0010889854    20.389257     1.323297 
   85000    0.9092395 -0.012060968    20.393963    1.3502207 
   85100   0.91008905  -0.01433375    20.352767    1.3514822 
   85200   0.79811915 0.0068848341    20.505121    1.1852069 
   85300   0.87117219 0.0018503446    20.357434    1.2936907 
   85400   0.83248595 -0.013204872    20.411641    1.2362416 
   85500   0.82794016 -0.016826558    20.429416    1.2294911 
   85600   0.84570647  0.010397348    20.419204    1.2558741 
   85700   0.94282159  0.013602924    20.380151    1.4000901 
   85800    1.0160678 -0.012692262    20.385694    1.5088607 
   85900   0.99010455 -0.0096850602    20.431595    1.4703053 
   86000   0.85877574 -0.018447889    20.553064     1.275282 
   86100   0.95881268 -0.011080241    20.455931    1.4238368 
   86200   0.94262034  0.018489579    20.520835    1.3997912 
   86300   0.95734828 -0.013108098    20.524451    1.4216622 
   86400   0.97240347 -0.010820489    20.532358    1.4440191 
   86500   0.95338252 -0.0083558995    20.516031     1.415773 
   86600   0.90026207 -0.014384393    20.636364    1.3368892 
   86700    0.9907066 0.0011236947    20.443669    1.4711993 
   86800   0.93401192 -0.014934667    20.570287    1.3870077 
   86900   0.92240473 -0.0053855706    20.577439     1.369771 
   87000   0.95472886 -0.0016758095    20.455855    1.4177724 
   87100    1.0221391  0.014927991     20.36175    1.5178765 
   87200    0.9653605 -0.014328345    20.453635    1.4335603 
   87300   0.99222343 0.0020788151    20.430856    1.4734518 
   87400    1.0035394 -0.022597273    20.426307    1.4902561 
   87500    1.0427009 0.00071568084     20.39429    1.5484109 
   87600    1.0033631 0.0041270396    20.477888    1.4899943 
   87700    1.0763042 -0.010515363    20.391841    1.5983118 
   87800   0.99452487  0.016321823    20.499115    1.4768694 
   87900   0.85842799 -0.022166757    20.601138    1.2747656 
   88000    1.0112668   0.01781648    20.370283    1.5017311 
   88100    1.0116171 0.0087644098    20.364931    1.5022514 
   88200   0.88522618 0.0010642361    20.444042    1.3145609 
   88300   0.93427336 -0.0044071412    20.398905    1.3873959 
   88400    1.0178308 0.0080020724    20.371152    1.5114788 
   88500   0.87712031  0.015133105     20.47875    1.3025237 
   88600   0.88595909 -0.012422381     20.42927    1.3156492 
   88700   0.97558479  0.024228011     20.29743    1.4487434 
   88800   0.92653061 -0.021981181    20.379677     1.375898 
   88900   0.98667878 0.0030262814    20.300772     1.465218 
   89000   0.94640533 -0.0048524072    20.361243    1.4054119 
   89100   0.88842927 -0.0043976652    20.429181    1.3193175 
   89200   0.97026334 -0.0084795296    20.293718    1.4408411 
   89300   0.89757224 -0.0049332899    20.407215    1.3328948 
   89400   0.89546475 -0.0085987707    20.417693    1.3297651 
   89500   0.97900675 -0.0013805582    20.402503     1.453825 
   89600   0.97769704 0.00034544123    20.432081    1.4518801 
   89700   0.98654787 -0.0071719609     20.47064    1.4650236 
   89800    1.1038916 -0.00071977539      20.3451     1.639279 
   89900    1.0266047  0.010794078    20.460468    1.5245079 
   90000    1.0429452  0.002466858    20.430458    1.5487736 
   90100   0.99658747 -0.014071703    20.495207    1.4799324 
   90200    1.0640192  0.027719043     20.44627    1.5800685 
   90300    0.9564524  0.015405631    20.525881    1.4203318 
   90400     1.070246 0.0029000013    20.397749    1.5893152 
   90500    0.9988025 -0.021231854    20.431523    1.4832217 
   90600   0.93662793 0.0083327341    20.542462    1.3908925 
   90700    1.0239872 -0.0090099436    20.483251    1.5206209 
   90800    1.0366333 -0.014878121    20.533317    1.5394005 
   90900    1.0599518 0.0099102921    20.527742    1.5740284 
   91000    1.0540541 0.00065778906    20.482664    1.5652704 
   91100    1.0404185  0.010986417    20.441287    1.5450215 
   91200   0.95628568  0.010218314    20.522711    1.4200842 
   91300    1.0114779  0.021233137     20.43002    1.5020446 
   91400   0.93442817 -0.010828586    20.499332    1.3876258 
   91500   0.99369302 0.0022627436    20.475845    1.4756341 
   91600   0.96605899 -0.0010620415    20.443475    1.4345976 
   91700   0.91112945 -0.0044227032    20.466861    1.3530272 
   91800   0.99787283  0.014889391    20.315379    1.4818412 
   91900   0.96961991 -0.0058306602    20.408914    1.4398856 
   92000    0.9584675  0.012410058    20.449574    1.4233242 
   92100   0.92364313 -0.017066378    20.483321    1.3716101 
   92200   0.94296898 -0.0099413972     20.42865    1.4003089 
   92300   0.96985396 -0.0049944461    20.440623    1.4402331 
   92400   0.93393748 -0.00028889776    20.417399    1.3868972 
   92500   0.93704143   0.02198793    20.302611    1.3915065 
   92600   0.91380973  0.013795686     20.35498    1.3570074 
   92700   0.92979584 -0.008795837    20.330728    1.3807468 
   92800   0.88407483  0.013415542      20.4491    1.3128511 
   92900   0.90333294 -0.0097557723    20.428836    1.3414494 
   93000   0.92221133  0.013331933    20.388141    1.3694838 
   93100   0.89385084 -0.0058343265    20.401054    1.3273685 
   93200   0.99085451 0.0014932407    20.304156    1.4714189 
   93300     0.860073 -0.019463547    20.468521    1.2772084 
   93400   0.87352411 0.0022603745    20.432201    1.2971833 
   93500   0.91969331 -0.0086687976    20.375656    1.3657446 
   93600   0.89145591 -0.0026125284    20.422569     1.323812 
   93700   0.87380807 0.0087347428    20.410694     1.297605 
   93800   0.90707548 -0.0027975982    20.456357    1.3470071 
   93900   0.86876189 0.0037467977    20.445536    1.2901114 
   94000   0.89972014 -0.004699895    20.410602    1.3360844 
   94100    0.9125798 0.00063351043    20.452554     1.355181 
   94200   0.94572081 -0.013044853    20.416388    1.4043954 
   94300   0.93337983  0.024211057    20.457095    1.3860691 
   94400   0.89655155 -0.002345332     20.47822    1.3313791 
   94500   0.91721254 0.0099619038    20.431935    1.3620606 
   94600   0.93662784 -0.0057077918    20.432823    1.3908923 
   94700   0.87781054 -0.0084066584    20.487334    1.3035487 
   94800    0.9094893  0.024056064    20.407569    1.3505916 
   94900    0.8495226   0.00451684    20.495913    1.2615411 
   95000   0.93924089 -0.017638237    20.548208    1.3947727 
   95100   0.93388902 -0.0069442593    20.529997    1.3868252 
   95200     1.023454 0.00015190693    20.378229    1.5198292 
   95300    1.0426389 -0.0092238285    20.493105    1.5483187 
   95400   0.96593856 -0.0030534536    20.600833    1.4344188 
   95500   0.98966747  -0.01452164    20.560983    1.4696562 
   95600    1.0150451 0.0057881038    20.457139     1.507342 
   95700    1.0346721  0.018985246    20.402565    1.5364881 
   95800    1.0391405 -0.0080185157    20.453884    1.5431237 
   95900     1.004307 -0.025221496    20.582789    1.4913959 
   96000   0.95028612 -0.0017117309    20.573625    1.4111749 
   96100     1.022309  0.025655429    20.469231    1.5181289 
   96200   0.96229122 -0.0047881601    20.534409    1.4290025 
   96300   0.96277584  0.007590934    20.479336    1.4297221 
   96400   0.92203216 0.0009495192    20.498298    1.3692178 
   96500   0.99682612  0.017936122    20.439601    1.4802868 
   96600   0.98947622 -0.0076986154     20.44142    1.4693722 
   96700    0.9811066  0.010709813    20.457594    1.4569433 
   96800    1.0527864 -0.024870222    20.414129    1.5633878 
   96900    1.0824069  0.018424894    20.441349    1.6073743 
   97000    1.0815732 0.0026584775    20.509736    1.6061361 
   97100    1.1014675 -0.0070161161    20.517106    1.6356792 
   97200    1.1268173  0.021794853    20.466688    1.6733237 
   97300    1.2102629 -0.0019005497    20.418692    1.7972404 
   97400    1.1990925 -0.013269547    20.412022    1.7806524 
   97500    1.1514555 -0.002490616    20.478536    1.7099114 
   97600    1.1185467 0.0012951511    20.527972    1.6610418 
   97700    1.1773146 0.0088142668    20.459146    1.7483122 
   97800    1.1555143 -0.0038693786    20.432446    1.7159387 
   97900    1.0109913 0.0091573403    20.541711     1.501322 
   98000    1.0880204  0.020484578    20.431334    1.6157103 
   98100   0.93393252 -0.025644887    20.545739    1.3868898 
   98200   0.92633702 0.0095597429    20.542734    1.3756105 
   98300    0.9506414 0.00038396497    20.561609    1.4117025 
   98400    1.0865933 -0.0053294438    20.448619    1.6135911 
   98500    1.0881612 -0.007369061    20.532475    1.6159194 
   98600     1.098043 0.0068690279    20.502673    1.6305938 
   98700    1.0188168 -0.0050005096    20.622756    1.5129429 
   98800    1.0005043 0.0047673034    20.587414    1.4857489 
   98900    1.0028095 -0.009932457     20.50387    1.4891721 
   99000   0.90725094 -0.018109808    20.597113    1.3472676 
   99100   0.91553443 0.0096041832    20.529287    1.3595686 
   99200   0.90274908 -0.026180295    20.597698    1.3405824 
   99300   0.95252892 0.0039155297    20.506361    1.4145054 
   99400   0.93288331 0.0068495223    20.600322    1.3853317 
   99500    1.0248431 -0.028957933    20.579989     1.521892 
   99600    1.0576877 -0.0080557416    20.497561    1.5706663 
   99700   0.93747348 0.0023636725    20.633589    1.3921481 
   99800   0.98478114 0.0062579286    20.510734       1.4624 
   99900   0.98002736 0.0043935528    20.432997    1.4553406 
  100000    0.9213326 -0.0050151049    20.556151    1.3681789 
  100100    1.0514962  0.011244119    20.460198    1.5614718 
  100200    1.0725704 -0.015808172    20.486968    1.5927671 
  100300    1.0109395 -0.017437913    20.496361    1.5012452 
  100400   0.98213542 -0.0075271912    20.506763    1.4584711 
  100500    1.0326666  0.024412068    20.544923      1.53351 
  100600   0.95427159 -0.011939827    20.615208    1.4170933 
  100700     1.062629 -0.010145365    20.427033     1.578004 
  100800    1.0350338 -0.011545763    20.533221    1.5370252 
  100900    1.0762582 0.0015313727    20.466884    1.5982434 
  101000    1.0606271 -0.0055608302    20.469702    1.5750312 
  101100    1.0328069 -0.012133429    20.569124    1.5337183 
  101200    1.0876641 0.0086931709    20.474718    1.6151813 
  101300      1.04566 0.0024281852     20.51343    1.5528051 
  101400    1.0285905  0.025621789    20.520956    1.5274569 
  101500    1.0260636 -0.0070789988    20.489343    1.5237044 
  101600   0.91270349 -0.019619004    20.553833    1.3553647 
  101700   0.87382704 0.0006406668    20.640302    1.2976332 
  101800   0.95587174 -0.0099597518    20.476502    1.4194695 
  101900   0.93724147 -0.0035638265    20.448422    1.3918036 
  102000   0.87598876 0.00084979015    20.451172    1.3008433 
Loop time of 2.89041 on 1 procs for 100000 steps with 100 atoms

Performance: 14945976.799 tau/day, 34597.169 timesteps/s
99.5% CPU use with 1 MPI tasks x 1 OpenMP threads

MPI task timing breakdown:
Section |  min time  |  avg time  |  max time  |%varavg| %total
---------------------------------------------------------------
Pair    | 1.8534     | 1.8534     | 1.8534     |   0.0 | 64.12
Bond    | 0.17716    | 0.17716    | 0.17716    |   0.0 |  6.13
Neigh   | 0.046246   | 0.046246   | 0.046246   |   0.0 |  1.60
Comm    | 0.13801    | 0.13801    | 0.13801    |   0.0 |  4.77
Output  | 0.014743   | 0.014743   | 0.014743   |   0.0 |  0.51
Modify  | 0.60971    | 0.60971    | 0.60971    |   0.0 | 21.09
Other   |            | 0.05109    |            |       |  1.77

Nlocal:    100 ave 100 max 100 min
Histogram: 1 0 0 0 0 0 0 0 0 0
Nghost:    508 ave 508 max 508 min
Histogram: 1 0 0 0 0 0 0 0 0 0
Neighs:    2722 ave 2722 max 2722 min
Histogram: 1 0 0 0 0 0 0 0 0 0

Total # of neighbors = 2722
Ave neighs/atom = 27.22
Ave special neighs/atom = 1.98
Neighbor list builds = 683
Dangerous builds = 0
unfix 1
unfix 2
write_restart   restart.int_settings.in.polylattice1

#---------------------------------------------------------------------------------------------------
# POTENTIAL MODIFICATION STAGE
#---------------------------------------------------------------------------------------------------
pair_style    lj/cut/soft 1.0 1.0 1.5
pair_coeff    1 2 0.2 1.0 0.109
pair_style    lj/cut/soft 1.0 1.0 1.5
pair_coeff    1 1 0.2 1.0 0.109
pair_style    lj/cut/soft 1.0 1.0 1.5
pair_coeff    2 2 0.5 1.0 0.109
velocity        all scale 1.0
fix             1 all nve/limit 1.5
fix             2 all langevin 1.0 1.0 1 52690
thermo_style    custom step temp press pe ke
thermo          100
run             100
Per MPI rank memory allocation (min/avg/max) = 5.555 | 5.555 | 5.555 Mbytes
Step Temp Press PotEng KinEng 
  102000            1 0.0024059134     20.45016        1.485 
  102100     1.087914 -0.017854637    20.595765    1.6155523 
Loop time of 0.00243402 on 1 procs for 100 steps with 100 atoms

Performance: 17748450.661 tau/day, 41084.377 timesteps/s
99.6% CPU use with 1 MPI tasks x 1 OpenMP threads

MPI task timing breakdown:
Section |  min time  |  avg time  |  max time  |%varavg| %total
---------------------------------------------------------------
Pair    | 0.001374   | 0.001374   | 0.001374   |   0.0 | 56.45
Bond    | 0.00017357 | 0.00017357 | 0.00017357 |   0.0 |  7.13
Neigh   | 0          | 0          | 0          |   0.0 |  0.00
Comm    | 0.00018883 | 0.00018883 | 0.00018883 |   0.0 |  7.76
Output  | 1.0014e-05 | 1.0014e-05 | 1.0014e-05 |   0.0 |  0.41
Modify  | 0.00061464 | 0.00061464 | 0.00061464 |   0.0 | 25.25
Other   |            | 7.296e-05  |            |       |  3.00

Nlocal:    100 ave 100 max 100 min
Histogram: 1 0 0 0 0 0 0 0 0 0
Nghost:    512 ave 512 max 512 min
Histogram: 1 0 0 0 0 0 0 0 0 0
Neighs:    2720 ave 2720 max 2720 min
Histogram: 1 0 0 0 0 0 0 0 0 0

Total # of neighbors = 2720
Ave neighs/atom = 27.2
Ave special neighs/atom = 1.98
Neighbor list builds = 0
Dangerous builds = 0
unfix 1
unfix 2

pair_style    lj/cut/soft 1.0 1.0 1.5
pair_coeff    1 2 0.2 1.0 0.118
pair_style    lj/cut/soft 1.0 1.0 1.5
pair_coeff    1 1 0.2 1.0 0.118
pair_style    lj/cut/soft 1.0 1.0 1.5
pair_coeff    2 2 0.5 1.0 0.118
velocity        all scale 1.0
fix             1 all nve/limit 1.5
fix             2 all langevin 1.0 1.0 1 52690
thermo_style    custom step temp press pe ke
thermo          100
run             100
Per MPI rank memory allocation (min/avg/max) = 5.555 | 5.555 | 5.555 Mbytes
Step Temp Press PotEng KinEng 
  102100            1 -0.018907481    20.595602        1.485 
  102200    1.0006764 0.0067696787    20.637929    1.4860044 
Loop time of 0.00235009 on 1 procs for 100 steps with 100 atoms

Performance: 18382259.592 tau/day, 42551.527 timesteps/s
99.7% CPU use with 1 MPI tasks x 1 OpenMP threads

MPI task timing breakdown:
Section |  min time  |  avg time  |  max time  |%varavg| %total
---------------------------------------------------------------
Pair    | 0.0013361  | 0.0013361  | 0.0013361  |   0.0 | 56.85
Bond    | 0.00015664 | 0.00015664 | 0.00015664 |   0.0 |  6.67
Neigh   | 0          | 0          | 0          |   0.0 |  0.00
Comm    | 0.0001874  | 0.0001874  | 0.0001874  |   0.0 |  7.97
Output  | 6.9141e-06 | 6.9141e-06 | 6.9141e-06 |   0.0 |  0.29
Modify  | 0.00058198 | 0.00058198 | 0.00058198 |   0.0 | 24.76
Other   |            | 8.106e-05  |            |       |  3.45

Nlocal:    100 ave 100 max 100 min
Histogram: 1 0 0 0 0 0 0 0 0 0
Nghost:    500 ave 500 max 500 min
Histogram: 1 0 0 0 0 0 0 0 0 0
Neighs:    2672 ave 2672 max 2672 min
Histogram: 1 0 0 0 0 0 0 0 0 0

Total # of neighbors = 2672
Ave neighs/atom = 26.72
Ave special neighs/atom = 1.98
Neighbor list builds = 0
Dangerous builds = 0
unfix 1
unfix 2

pair_style    lj/cut/soft 1.0 1.0 1.5
pair_coeff    1 2 0.2 1.0 0.127
pair_style    lj/cut/soft 1.0 1.0 1.5
pair_coeff    1 1 0.2 1.0 0.127
pair_style    lj/cut/soft 1.0 1.0 1.5
pair_coeff    2 2 0.5 1.0 0.127
velocity        all scale 1.0
fix             1 all nve/limit 1.5
fix             2 all langevin 1.0 1.0 1 52690
thermo_style    custom step temp press pe ke
thermo          100
run             100
Per MPI rank memory allocation (min/avg/max) = 5.555 | 5.555 | 5.555 Mbytes
Step Temp Press PotEng KinEng 
  102200            1 0.0068024914    20.638588        1.485 
  102300    1.1761391  0.011321087    20.423046    1.7465666 
Loop time of 0.00234604 on 1 procs for 100 steps with 100 atoms

Performance: 18414017.561 tau/day, 42625.041 timesteps/s
99.8% CPU use with 1 MPI tasks x 1 OpenMP threads

MPI task timing breakdown:
Section |  min time  |  avg time  |  max time  |%varavg| %total
---------------------------------------------------------------
Pair    | 0.0013206  | 0.0013206  | 0.0013206  |   0.0 | 56.29
Bond    | 0.00017619 | 0.00017619 | 0.00017619 |   0.0 |  7.51
Neigh   | 0          | 0          | 0          |   0.0 |  0.00
Comm    | 0.0001862  | 0.0001862  | 0.0001862  |   0.0 |  7.94
Output  | 5.9605e-06 | 5.9605e-06 | 5.9605e-06 |   0.0 |  0.25
Modify  | 0.00059891 | 0.00059891 | 0.00059891 |   0.0 | 25.53
Other   |            | 5.817e-05  |            |       |  2.48

Nlocal:    100 ave 100 max 100 min
Histogram: 1 0 0 0 0 0 0 0 0 0
Nghost:    492 ave 492 max 492 min
Histogram: 1 0 0 0 0 0 0 0 0 0
Neighs:    2642 ave 2642 max 2642 min
Histogram: 1 0 0 0 0 0 0 0 0 0

Total # of neighbors = 2642
Ave neighs/atom = 26.42
Ave special neighs/atom = 1.98
Neighbor list builds = 0
Dangerous builds = 0
unfix 1
unfix 2

pair_style    lj/cut/soft 1.0 1.0 1.5
pair_coeff    1 2 0.2 1.0 0.136
pair_style    lj/cut/soft 1.0 1.0 1.5
pair_coeff    1 1 0.2 1.0 0.136
pair_style    lj/cut/soft 1.0 1.0 1.5
pair_coeff    2 2 0.5 1.0 0.136
velocity        all scale 1.0
fix             1 all nve/limit 1.5
fix             2 all langevin 1.0 1.0 1 52690
thermo_style    custom step temp press pe ke
thermo          100
run             100
Per MPI rank memory allocation (min/avg/max) = 5.555 | 5.555 | 5.555 Mbytes
Step Temp Press PotEng KinEng 
  102300            1 0.0091669858    20.422514        1.485 
  102400      1.09116 0.0068701691    20.488592    1.6203725 
Loop time of 0.00239897 on 1 procs for 100 steps with 100 atoms

Performance: 18007745.259 tau/day, 41684.596 timesteps/s
99.5% CPU use with 1 MPI tasks x 1 OpenMP threads

MPI task timing breakdown:
Section |  min time  |  avg time  |  max time  |%varavg| %total
---------------------------------------------------------------
Pair    | 0.0013177  | 0.0013177  | 0.0013177  |   0.0 | 54.93
Bond    | 0.00017357 | 0.00017357 | 0.00017357 |   0.0 |  7.24
Neigh   | 0          | 0          | 0          |   0.0 |  0.00
Comm    | 0.00020456 | 0.00020456 | 0.00020456 |   0.0 |  8.53
Output  | 1.2159e-05 | 1.2159e-05 | 1.2159e-05 |   0.0 |  0.51
Modify  | 0.00062943 | 0.00062943 | 0.00062943 |   0.0 | 26.24
Other   |            | 6.151e-05  |            |       |  2.56

Nlocal:    100 ave 100 max 100 min
Histogram: 1 0 0 0 0 0 0 0 0 0
Nghost:    476 ave 476 max 476 min
Histogram: 1 0 0 0 0 0 0 0 0 0
Neighs:    2566 ave 2566 max 2566 min
Histogram: 1 0 0 0 0 0 0 0 0 0

Total # of neighbors = 2566
Ave neighs/atom = 25.66
Ave special neighs/atom = 1.98
Neighbor list builds = 0
Dangerous builds = 0
unfix 1
unfix 2

pair_style    lj/cut/soft 1.0 1.0 1.5
pair_coeff    1 2 0.2 1.0 0.14500000000000002
pair_style    lj/cut/soft 1.0 1.0 1.5
pair_coeff    1 1 0.2 1.0 0.14500000000000002
pair_style    lj/cut/soft 1.0 1.0 1.5
pair_coeff    2 2 0.5 1.0 0.14500000000000002
velocity        all scale 1.0
fix             1 all nve/limit 1.5
fix             2 all langevin 1.0 1.0 1 52690
thermo_style    custom step temp press pe ke
thermo          100
run             100
Per MPI rank memory allocation (min/avg/max) = 5.555 | 5.555 | 5.555 Mbytes
Step Temp Press PotEng KinEng 
  102400            1 0.0057778601    20.490873        1.485 
  102500    1.0890338 0.0047365508    20.432996    1.6172152 
Loop time of 0.00221992 on 1 procs for 100 steps with 100 atoms

Performance: 19460201.138 tau/day, 45046.762 timesteps/s
99.8% CPU use with 1 MPI tasks x 1 OpenMP threads

MPI task timing breakdown:
Section |  min time  |  avg time  |  max time  |%varavg| %total
---------------------------------------------------------------
Pair    | 0.0011559  | 0.0011559  | 0.0011559  |   0.0 | 52.07
Bond    | 0.00017691 | 0.00017691 | 0.00017691 |   0.0 |  7.97
Neigh   | 0          | 0          | 0          |   0.0 |  0.00
Comm    | 0.00019312 | 0.00019312 | 0.00019312 |   0.0 |  8.70
Output  | 5.9605e-06 | 5.9605e-06 | 5.9605e-06 |   0.0 |  0.27
Modify  | 0.00062418 | 0.00062418 | 0.00062418 |   0.0 | 28.12
Other   |            | 6.39e-05   |            |       |  2.88

Nlocal:    100 ave 100 max 100 min
Histogram: 1 0 0 0 0 0 0 0 0 0
Nghost:    456 ave 456 max 456 min
Histogram: 1 0 0 0 0 0 0 0 0 0
Neighs:    2377 ave 2377 max 2377 min
Histogram: 1 0 0 0 0 0 0 0 0 0

Total # of neighbors = 2377
Ave neighs/atom = 23.77
Ave special neighs/atom = 1.98
Neighbor list builds = 0
Dangerous builds = 0
unfix 1
unfix 2

pair_style    lj/cut/soft 1.0 1.0 1.5
pair_coeff    1 2 0.2 1.0 0.15400000000000003
pair_style    lj/cut/soft 1.0 1.0 1.5
pair_coeff    1 1 0.2 1.0 0.15400000000000003
pair_style    lj/cut/soft 1.0 1.0 1.5
pair_coeff    2 2 0.5 1.0 0.15400000000000003
velocity        all scale 1.0
fix             1 all nve/limit 1.5
fix             2 all langevin 1.0 1.0 1 52690
thermo_style    custom step temp press pe ke
thermo          100
run             100
Per MPI rank memory allocation (min/avg/max) = 5.555 | 5.555 | 5.555 Mbytes
Step Temp Press PotEng KinEng 
  102500            1 0.0036628496    20.434517        1.485 
  102600    1.0244258 -0.021044695    20.458656    1.5212724 
Loop time of 0.00224018 on 1 procs for 100 steps with 100 atoms

Performance: 19284156.322 tau/day, 44639.251 timesteps/s
99.6% CPU use with 1 MPI tasks x 1 OpenMP threads

MPI task timing breakdown:
Section |  min time  |  avg time  |  max time  |%varavg| %total
---------------------------------------------------------------
Pair    | 0.0011482  | 0.0011482  | 0.0011482  |   0.0 | 51.26
Bond    | 0.00017357 | 0.00017357 | 0.00017357 |   0.0 |  7.75
Neigh   | 0          | 0          | 0          |   0.0 |  0.00
Comm    | 0.00019598 | 0.00019598 | 0.00019598 |   0.0 |  8.75
Output  | 1.1921e-05 | 1.1921e-05 | 1.1921e-05 |   0.0 |  0.53
Modify  | 0.00064111 | 0.00064111 | 0.00064111 |   0.0 | 28.62
Other   |            | 6.938e-05  |            |       |  3.10

Nlocal:    100 ave 100 max 100 min
Histogram: 1 0 0 0 0 0 0 0 0 0
Nghost:    480 ave 480 max 480 min
Histogram: 1 0 0 0 0 0 0 0 0 0
Neighs:    2265 ave 2265 max 2265 min
Histogram: 1 0 0 0 0 0 0 0 0 0

Total # of neighbors = 2265
Ave neighs/atom = 22.65
Ave special neighs/atom = 1.98
Neighbor list builds = 0
Dangerous builds = 0
unfix 1
unfix 2

pair_style    lj/cut/soft 1.0 1.0 1.5
pair_coeff    1 2 0.2 1.0 0.16300000000000003
pair_style    lj/cut/soft 1.0 1.0 1.5
pair_coeff    1 1 0.2 1.0 0.16300000000000003
pair_style    lj/cut/soft 1.0 1.0 1.5
pair_coeff    2 2 0.5 1.0 0.16300000000000003
velocity        all scale 1.0
fix             1 all nve/limit 1.5
fix             2 all langevin 1.0 1.0 1 52690
thermo_style    custom step temp press pe ke
thermo          100
run             100
Per MPI rank memory allocation (min/avg/max) = 5.555 | 5.555 | 5.555 Mbytes
Step Temp Press PotEng KinEng 
  102600            1 -0.021301019    20.460002        1.485 
  102700   0.95187262 -0.0022942114    20.402416    1.4135308 
Loop time of 0.002244 on 1 procs for 100 steps with 100 atoms

Performance: 19251374.076 tau/day, 44563.366 timesteps/s
99.6% CPU use with 1 MPI tasks x 1 OpenMP threads

MPI task timing breakdown:
Section |  min time  |  avg time  |  max time  |%varavg| %total
---------------------------------------------------------------
Pair    | 0.0010767  | 0.0010767  | 0.0010767  |   0.0 | 47.98
Bond    | 0.00017595 | 0.00017595 | 0.00017595 |   0.0 |  7.84
Neigh   | 0          | 0          | 0          |   0.0 |  0.00
Comm    | 0.00019979 | 0.00019979 | 0.00019979 |   0.0 |  8.90
Output  | 1.812e-05  | 1.812e-05  | 1.812e-05  |   0.0 |  0.81
Modify  | 0.00069809 | 0.00069809 | 0.00069809 |   0.0 | 31.11
Other   |            | 7.534e-05  |            |       |  3.36

Nlocal:    100 ave 100 max 100 min
Histogram: 1 0 0 0 0 0 0 0 0 0
Nghost:    496 ave 496 max 496 min
Histogram: 1 0 0 0 0 0 0 0 0 0
Neighs:    2166 ave 2166 max 2166 min
Histogram: 1 0 0 0 0 0 0 0 0 0

Total # of neighbors = 2166
Ave neighs/atom = 21.66
Ave special neighs/atom = 1.98
Neighbor list builds = 0
Dangerous builds = 0
unfix 1
unfix 2

pair_style    lj/cut/soft 1.0 1.0 1.5
pair_coeff    1 2 0.2 1.0 0.17200000000000004
pair_style    lj/cut/soft 1.0 1.0 1.5
pair_coeff    1 1 0.2 1.0 0.17200000000000004
pair_style    lj/cut/soft 1.0 1.0 1.5
pair_coeff    2 2 0.5 1.0 0.17200000000000004
velocity        all scale 1.0
fix             1 all nve/limit 1.5
fix             2 all langevin 1.0 1.0 1 52690
thermo_style    custom step temp press pe ke
thermo          100
run             100
Per MPI rank memory allocation (min/avg/max) = 5.555 | 5.555 | 5.555 Mbytes
Step Temp Press PotEng KinEng 
  102700            1 -0.0016584338    20.404164        1.485 
  102800    1.1379211 0.0052260489     20.40136    1.6898128 
Loop time of 0.00204897 on 1 procs for 100 steps with 100 atoms

Performance: 21083771.562 tau/day, 48805.027 timesteps/s
99.8% CPU use with 1 MPI tasks x 1 OpenMP threads

MPI task timing breakdown:
Section |  min time  |  avg time  |  max time  |%varavg| %total
---------------------------------------------------------------
Pair    | 0.0010376  | 0.0010376  | 0.0010376  |   0.0 | 50.64
Bond    | 0.00016618 | 0.00016618 | 0.00016618 |   0.0 |  8.11
Neigh   | 0          | 0          | 0          |   0.0 |  0.00
Comm    | 0.00018311 | 0.00018311 | 0.00018311 |   0.0 |  8.94
Output  | 5.9605e-06 | 5.9605e-06 | 5.9605e-06 |   0.0 |  0.29
Modify  | 0.00059199 | 0.00059199 | 0.00059199 |   0.0 | 28.89
Other   |            | 6.413e-05  |            |       |  3.13

Nlocal:    100 ave 100 max 100 min
Histogram: 1 0 0 0 0 0 0 0 0 0
Nghost:    480 ave 480 max 480 min
Histogram: 1 0 0 0 0 0 0 0 0 0
Neighs:    2086 ave 2086 max 2086 min
Histogram: 1 0 0 0 0 0 0 0 0 0

Total # of neighbors = 2086
Ave neighs/atom = 20.86
Ave special neighs/atom = 1.98
Neighbor list builds = 0
Dangerous builds = 0
unfix 1
unfix 2

pair_style    lj/cut/soft 1.0 1.0 1.5
pair_coeff    1 2 0.2 1.0 0.18100000000000005
pair_style    lj/cut/soft 1.0 1.0 1.5
pair_coeff    1 1 0.2 1.0 0.18100000000000005
pair_style    lj/cut/soft 1.0 1.0 1.5
pair_coeff    2 2 0.5 1.0 0.18100000000000005
velocity        all scale 1.0
fix             1 all nve/limit 1.5
fix             2 all langevin 1.0 1.0 1 52690
thermo_style    custom step temp press pe ke
thermo          100
run             100
Per MPI rank memory allocation (min/avg/max) = 5.555 | 5.555 | 5.555 Mbytes
Step Temp Press PotEng KinEng 
  102800            1 0.0035771255     20.40443        1.485 
  102900    1.1363999 0.0092665795    20.432554    1.6875538 
Loop time of 0.00204897 on 1 procs for 100 steps with 100 atoms

Performance: 21083771.562 tau/day, 48805.027 timesteps/s
99.8% CPU use with 1 MPI tasks x 1 OpenMP threads

MPI task timing breakdown:
Section |  min time  |  avg time  |  max time  |%varavg| %total
---------------------------------------------------------------
Pair    | 0.0010173  | 0.0010173  | 0.0010173  |   0.0 | 49.65
Bond    | 0.00017571 | 0.00017571 | 0.00017571 |   0.0 |  8.58
Neigh   | 0          | 0          | 0          |   0.0 |  0.00
Comm    | 0.00018454 | 0.00018454 | 0.00018454 |   0.0 |  9.01
Output  | 5.9605e-06 | 5.9605e-06 | 5.9605e-06 |   0.0 |  0.29
Modify  | 0.000597   | 0.000597   | 0.000597   |   0.0 | 29.14
Other   |            | 6.843e-05  |            |       |  3.34

Nlocal:    100 ave 100 max 100 min
Histogram: 1 0 0 0 0 0 0 0 0 0
Nghost:    500 ave 500 max 500 min
Histogram: 1 0 0 0 0 0 0 0 0 0
Neighs:    2103 ave 2103 max 2103 min
Histogram: 1 0 0 0 0 0 0 0 0 0

Total # of neighbors = 2103
Ave neighs/atom = 21.03
Ave special neighs/atom = 1.98
Neighbor list builds = 0
Dangerous builds = 0
unfix 1
unfix 2

pair_style    lj/cut/soft 1.0 1.0 1.5
pair_coeff    1 2 0.2 1.0 0.19000000000000006
pair_style    lj/cut/soft 1.0 1.0 1.5
pair_coeff    1 1 0.2 1.0 0.19000000000000006
pair_style    lj/cut/soft 1.0 1.0 1.5
pair_coeff    2 2 0.5 1.0 0.19000000000000006
velocity        all scale 1.0
fix             1 all nve/limit 1.5
fix             2 all langevin 1.0 1.0 1 52690
thermo_style    custom step temp press pe ke
thermo          100
run             100
Per MPI rank memory allocation (min/avg/max) = 5.555 | 5.555 | 5.555 Mbytes
Step Temp Press PotEng KinEng 
  102900            1 0.0076421828    20.436894        1.485 
  103000    1.0242436 0.0046711872    20.465744    1.5210018 
Loop time of 0.00205898 on 1 procs for 100 steps with 100 atoms

Performance: 20981233.534 tau/day, 48567.670 timesteps/s
99.6% CPU use with 1 MPI tasks x 1 OpenMP threads

MPI task timing breakdown:
Section |  min time  |  avg time  |  max time  |%varavg| %total
---------------------------------------------------------------
Pair    | 0.0010126  | 0.0010126  | 0.0010126  |   0.0 | 49.18
Bond    | 0.00016499 | 0.00016499 | 0.00016499 |   0.0 |  8.01
Neigh   | 0          | 0          | 0          |   0.0 |  0.00
Comm    | 0.0001874  | 0.0001874  | 0.0001874  |   0.0 |  9.10
Output  | 1.2159e-05 | 1.2159e-05 | 1.2159e-05 |   0.0 |  0.59
Modify  | 0.00061989 | 0.00061989 | 0.00061989 |   0.0 | 30.11
Other   |            | 6.199e-05  |            |       |  3.01

Nlocal:    100 ave 100 max 100 min
Histogram: 1 0 0 0 0 0 0 0 0 0
Nghost:    488 ave 488 max 488 min
Histogram: 1 0 0 0 0 0 0 0 0 0
Neighs:    2100 ave 2100 max 2100 min
Histogram: 1 0 0 0 0 0 0 0 0 0

Total # of neighbors = 2100
Ave neighs/atom = 21
Ave special neighs/atom = 1.98
Neighbor list builds = 0
Dangerous builds = 0
unfix 1
unfix 2

pair_style    lj/cut/soft 1.0 1.0 1.5
pair_coeff    1 2 0.2 1.0 0.19900000000000007
pair_style    lj/cut/soft 1.0 1.0 1.5
pair_coeff    1 1 0.2 1.0 0.19900000000000007
pair_style    lj/cut/soft 1.0 1.0 1.5
pair_coeff    2 2 0.5 1.0 0.19900000000000007
velocity        all scale 1.0
fix             1 all nve/limit 1.5
fix             2 all langevin 1.0 1.0 1 52690
thermo_style    custom step temp press pe ke
thermo          100
run             100
Per MPI rank memory allocation (min/avg/max) = 5.555 | 5.555 | 5.555 Mbytes
Step Temp Press PotEng KinEng 
  103000            1  0.004423024    20.469215        1.485 
  103100    1.0850109 -0.0023442102    20.511772    1.6112412 
Loop time of 0.00200987 on 1 procs for 100 steps with 100 atoms

Performance: 21493942.206 tau/day, 49754.496 timesteps/s
99.8% CPU use with 1 MPI tasks x 1 OpenMP threads

MPI task timing breakdown:
Section |  min time  |  avg time  |  max time  |%varavg| %total
---------------------------------------------------------------
Pair    | 0.00097823 | 0.00097823 | 0.00097823 |   0.0 | 48.67
Bond    | 0.00018072 | 0.00018072 | 0.00018072 |   0.0 |  8.99
Neigh   | 0          | 0          | 0          |   0.0 |  0.00
Comm    | 0.00017929 | 0.00017929 | 0.00017929 |   0.0 |  8.92
Output  | 6.9141e-06 | 6.9141e-06 | 6.9141e-06 |   0.0 |  0.34
Modify  | 0.00059175 | 0.00059175 | 0.00059175 |   0.0 | 29.44
Other   |            | 7.296e-05  |            |       |  3.63

Nlocal:    100 ave 100 max 100 min
Histogram: 1 0 0 0 0 0 0 0 0 0
Nghost:    482 ave 482 max 482 min
Histogram: 1 0 0 0 0 0 0 0 0 0
Neighs:    2035 ave 2035 max 2035 min
Histogram: 1 0 0 0 0 0 0 0 0 0

Total # of neighbors = 2035
Ave neighs/atom = 20.35
Ave special neighs/atom = 1.98
Neighbor list builds = 0
Dangerous builds = 0
unfix 1
unfix 2

pair_style    lj/cut/soft 1.0 1.0 1.5
pair_coeff    1 2 0.2 1.0 0.20800000000000007
pair_style    lj/cut/soft 1.0 1.0 1.5
pair_coeff    1 1 0.2 1.0 0.20800000000000007
pair_style    lj/cut/soft 1.0 1.0 1.5
pair_coeff    2 2 0.5 1.0 0.20800000000000007
velocity        all scale 1.0
fix             1 all nve/limit 1.5
fix             2 all langevin 1.0 1.0 1 52690
thermo_style    custom step temp press pe ke
thermo          100
run             100
Per MPI rank memory allocation (min/avg/max) = 5.555 | 5.555 | 5.555 Mbytes
Step Temp Press PotEng KinEng 
  103100            1 -0.0033187589    20.515145        1.485 
  103200    1.0569174 -0.014479391    20.450583    1.5695224 
Loop time of 0.00199199 on 1 procs for 100 steps with 100 atoms

Performance: 21686886.032 tau/day, 50201.125 timesteps/s
99.8% CPU use with 1 MPI tasks x 1 OpenMP threads

MPI task timing breakdown:
Section |  min time  |  avg time  |  max time  |%varavg| %total
---------------------------------------------------------------
Pair    | 0.00098228 | 0.00098228 | 0.00098228 |   0.0 | 49.31
Bond    | 0.0001688  | 0.0001688  | 0.0001688  |   0.0 |  8.47
Neigh   | 0          | 0          | 0          |   0.0 |  0.00
Comm    | 0.00016999 | 0.00016999 | 0.00016999 |   0.0 |  8.53
Output  | 5.9605e-06 | 5.9605e-06 | 5.9605e-06 |   0.0 |  0.30
Modify  | 0.00060606 | 0.00060606 | 0.00060606 |   0.0 | 30.42
Other   |            | 5.889e-05  |            |       |  2.96

Nlocal:    100 ave 100 max 100 min
Histogram: 1 0 0 0 0 0 0 0 0 0
Nghost:    452 ave 452 max 452 min
Histogram: 1 0 0 0 0 0 0 0 0 0
Neighs:    1950 ave 1950 max 1950 min
Histogram: 1 0 0 0 0 0 0 0 0 0

Total # of neighbors = 1950
Ave neighs/atom = 19.5
Ave special neighs/atom = 1.98
Neighbor list builds = 0
Dangerous builds = 0
unfix 1
unfix 2

pair_style    lj/cut/soft 1.0 1.0 1.5
pair_coeff    1 2 0.2 1.0 0.21700000000000008
pair_style    lj/cut/soft 1.0 1.0 1.5
pair_coeff    1 1 0.2 1.0 0.21700000000000008
pair_style    lj/cut/soft 1.0 1.0 1.5
pair_coeff    2 2 0.5 1.0 0.21700000000000008
velocity        all scale 1.0
fix             1 all nve/limit 1.5
fix             2 all langevin 1.0 1.0 1 52690
thermo_style    custom step temp press pe ke
thermo          100
run             100
Per MPI rank memory allocation (min/avg/max) = 5.555 | 5.555 | 5.555 Mbytes
Step Temp Press PotEng KinEng 
  103200            1  -0.01508417    20.455629        1.485 
  103300    1.0745511 0.0033559654      20.5695    1.5957084 
Loop time of 0.00205517 on 1 procs for 100 steps with 100 atoms

Performance: 21020177.819 tau/day, 48657.819 timesteps/s
22.3% CPU use with 1 MPI tasks x 1 OpenMP threads

MPI task timing breakdown:
Section |  min time  |  avg time  |  max time  |%varavg| %total
---------------------------------------------------------------
Pair    | 0.0010164  | 0.0010164  | 0.0010164  |   0.0 | 49.45
Bond    | 0.00018501 | 0.00018501 | 0.00018501 |   0.0 |  9.00
Neigh   | 0          | 0          | 0          |   0.0 |  0.00
Comm    | 0.00018096 | 0.00018096 | 0.00018096 |   0.0 |  8.81
Output  | 1.5974e-05 | 1.5974e-05 | 1.5974e-05 |   0.0 |  0.78
Modify  | 0.00060821 | 0.00060821 | 0.00060821 |   0.0 | 29.59
Other   |            | 4.864e-05  |            |       |  2.37

Nlocal:    100 ave 100 max 100 min
Histogram: 1 0 0 0 0 0 0 0 0 0
Nghost:    446 ave 446 max 446 min
Histogram: 1 0 0 0 0 0 0 0 0 0
Neighs:    1877 ave 1877 max 1877 min
Histogram: 1 0 0 0 0 0 0 0 0 0

Total # of neighbors = 1877
Ave neighs/atom = 18.77
Ave special neighs/atom = 1.98
Neighbor list builds = 0
Dangerous builds = 0
unfix 1
unfix 2

pair_style    lj/cut/soft 1.0 1.0 1.5
pair_coeff    1 2 0.2 1.0 0.2260000000000001
pair_style    lj/cut/soft 1.0 1.0 1.5
pair_coeff    1 1 0.2 1.0 0.2260000000000001
pair_style    lj/cut/soft 1.0 1.0 1.5
pair_coeff    2 2 0.5 1.0 0.2260000000000001
velocity        all scale 1.0
fix             1 all nve/limit 1.5
fix             2 all langevin 1.0 1.0 1 52690
thermo_style    custom step temp press pe ke
thermo          100
run             100
Per MPI rank memory allocation (min/avg/max) = 5.555 | 5.555 | 5.555 Mbytes
Step Temp Press PotEng KinEng 
  103300            1 0.0025490488    20.577409        1.485 
  103400    1.1173712 -0.0077027985    20.484237    1.6592962 
Loop time of 0.00204492 on 1 procs for 100 steps with 100 atoms

Performance: 21125560.546 tau/day, 48901.761 timesteps/s
99.8% CPU use with 1 MPI tasks x 1 OpenMP threads

MPI task timing breakdown:
Section |  min time  |  avg time  |  max time  |%varavg| %total
---------------------------------------------------------------
Pair    | 0.0010407  | 0.0010407  | 0.0010407  |   0.0 | 50.89
Bond    | 0.00017023 | 0.00017023 | 0.00017023 |   0.0 |  8.32
Neigh   | 0          | 0          | 0          |   0.0 |  0.00
Comm    | 0.00016022 | 0.00016022 | 0.00016022 |   0.0 |  7.83
Output  | 6.1989e-06 | 6.1989e-06 | 6.1989e-06 |   0.0 |  0.30
Modify  | 0.00060916 | 0.00060916 | 0.00060916 |   0.0 | 29.79
Other   |            | 5.841e-05  |            |       |  2.86

Nlocal:    100 ave 100 max 100 min
Histogram: 1 0 0 0 0 0 0 0 0 0
Nghost:    422 ave 422 max 422 min
Histogram: 1 0 0 0 0 0 0 0 0 0
Neighs:    1821 ave 1821 max 1821 min
Histogram: 1 0 0 0 0 0 0 0 0 0

Total # of neighbors = 1821
Ave neighs/atom = 18.21
Ave special neighs/atom = 1.98
Neighbor list builds = 0
Dangerous builds = 0
unfix 1
unfix 2

pair_style    lj/cut/soft 1.0 1.0 1.5
pair_coeff    1 2 0.2 1.0 0.2350000000000001
pair_style    lj/cut/soft 1.0 1.0 1.5
pair_coeff    1 1 0.2 1.0 0.2350000000000001
pair_style    lj/cut/soft 1.0 1.0 1.5
pair_coeff    2 2 0.5 1.0 0.2350000000000001
velocity        all scale 1.0
fix             1 all nve/limit 1.5
fix             2 all langevin 1.0 1.0 1 52690
thermo_style    custom step temp press pe ke
thermo          100
run             100
Per MPI rank memory allocation (min/avg/max) = 5.555 | 5.555 | 5.555 Mbytes
Step Temp Press PotEng KinEng 
  103400            1 -0.0089966081    20.495429        1.485 
  103500    1.1145205 -0.0053348273    20.509444    1.6550629 
Loop time of 0.00200987 on 1 procs for 100 steps with 100 atoms

Performance: 21493942.206 tau/day, 49754.496 timesteps/s
99.9% CPU use with 1 MPI tasks x 1 OpenMP threads

MPI task timing breakdown:
Section |  min time  |  avg time  |  max time  |%varavg| %total
---------------------------------------------------------------
Pair    | 0.0010192  | 0.0010192  | 0.0010192  |   0.0 | 50.71
Bond    | 0.00016356 | 0.00016356 | 0.00016356 |   0.0 |  8.14
Neigh   | 0          | 0          | 0          |   0.0 |  0.00
Comm    | 0.0001688  | 0.0001688  | 0.0001688  |   0.0 |  8.40
Output  | 5.9605e-06 | 5.9605e-06 | 5.9605e-06 |   0.0 |  0.30
Modify  | 0.00059652 | 0.00059652 | 0.00059652 |   0.0 | 29.68
Other   |            | 5.579e-05  |            |       |  2.78

Nlocal:    100 ave 100 max 100 min
Histogram: 1 0 0 0 0 0 0 0 0 0
Nghost:    436 ave 436 max 436 min
Histogram: 1 0 0 0 0 0 0 0 0 0
Neighs:    1752 ave 1752 max 1752 min
Histogram: 1 0 0 0 0 0 0 0 0 0

Total # of neighbors = 1752
Ave neighs/atom = 17.52
Ave special neighs/atom = 1.98
Neighbor list builds = 0
Dangerous builds = 0
unfix 1
unfix 2

pair_style    lj/cut/soft 1.0 1.0 1.5
pair_coeff    1 2 0.2 1.0 0.2440000000000001
pair_style    lj/cut/soft 1.0 1.0 1.5
pair_coeff    1 1 0.2 1.0 0.2440000000000001
pair_style    lj/cut/soft 1.0 1.0 1.5
pair_coeff    2 2 0.5 1.0 0.2440000000000001
velocity        all scale 1.0
fix             1 all nve/limit 1.5
fix             2 all langevin 1.0 1.0 1 52690
thermo_style    custom step temp press pe ke
thermo          100
run             100
Per MPI rank memory allocation (min/avg/max) = 5.555 | 5.555 | 5.555 Mbytes
Step Temp Press PotEng KinEng 
  103500            1 -0.0066315878    20.516015        1.485 
  103600    1.1521792  0.011375966    20.418224    1.7109862 
Loop time of 0.00206685 on 1 procs for 100 steps with 100 atoms

Performance: 20901364.956 tau/day, 48382.789 timesteps/s
99.6% CPU use with 1 MPI tasks x 1 OpenMP threads

MPI task timing breakdown:
Section |  min time  |  avg time  |  max time  |%varavg| %total
---------------------------------------------------------------
Pair    | 0.0010235  | 0.0010235  | 0.0010235  |   0.0 | 49.52
Bond    | 0.00017285 | 0.00017285 | 0.00017285 |   0.0 |  8.36
Neigh   | 0          | 0          | 0          |   0.0 |  0.00
Comm    | 0.00017023 | 0.00017023 | 0.00017023 |   0.0 |  8.24
Output  | 1.9073e-05 | 1.9073e-05 | 1.9073e-05 |   0.0 |  0.92
Modify  | 0.00062203 | 0.00062203 | 0.00062203 |   0.0 | 30.10
Other   |            | 5.913e-05  |            |       |  2.86

Nlocal:    100 ave 100 max 100 min
Histogram: 1 0 0 0 0 0 0 0 0 0
Nghost:    414 ave 414 max 414 min
Histogram: 1 0 0 0 0 0 0 0 0 0
Neighs:    1697 ave 1697 max 1697 min
Histogram: 1 0 0 0 0 0 0 0 0 0

Total # of neighbors = 1697
Ave neighs/atom = 16.97
Ave special neighs/atom = 1.98
Neighbor list builds = 0
Dangerous builds = 0
unfix 1
unfix 2

pair_style    lj/cut/soft 1.0 1.0 1.5
pair_coeff    1 2 0.2 1.0 0.2530000000000001
pair_style    lj/cut/soft 1.0 1.0 1.5
pair_coeff    1 1 0.2 1.0 0.2530000000000001
pair_style    lj/cut/soft 1.0 1.0 1.5
pair_coeff    2 2 0.5 1.0 0.2530000000000001
velocity        all scale 1.0
fix             1 all nve/limit 1.5
fix             2 all langevin 1.0 1.0 1 52690
thermo_style    custom step temp press pe ke
thermo          100
run             100
Per MPI rank memory allocation (min/avg/max) = 5.555 | 5.555 | 5.555 Mbytes
Step Temp Press PotEng KinEng 
  103600            1 0.0096006928    20.423122        1.485 
  103700    1.1857361 -0.0024827871    20.403051    1.7608182 
Loop time of 0.00193501 on 1 procs for 100 steps with 100 atoms

Performance: 22325521.538 tau/day, 51679.448 timesteps/s
99.8% CPU use with 1 MPI tasks x 1 OpenMP threads

MPI task timing breakdown:
Section |  min time  |  avg time  |  max time  |%varavg| %total
---------------------------------------------------------------
Pair    | 0.00089121 | 0.00089121 | 0.00089121 |   0.0 | 46.06
Bond    | 0.00018287 | 0.00018287 | 0.00018287 |   0.0 |  9.45
Neigh   | 0          | 0          | 0          |   0.0 |  0.00
Comm    | 0.00017262 | 0.00017262 | 0.00017262 |   0.0 |  8.92
Output  | 6.9141e-06 | 6.9141e-06 | 6.9141e-06 |   0.0 |  0.36
Modify  | 0.00063157 | 0.00063157 | 0.00063157 |   0.0 | 32.64
Other   |            | 4.983e-05  |            |       |  2.58

Nlocal:    100 ave 100 max 100 min
Histogram: 1 0 0 0 0 0 0 0 0 0
Nghost:    408 ave 408 max 408 min
Histogram: 1 0 0 0 0 0 0 0 0 0
Neighs:    1656 ave 1656 max 1656 min
Histogram: 1 0 0 0 0 0 0 0 0 0

Total # of neighbors = 1656
Ave neighs/atom = 16.56
Ave special neighs/atom = 1.98
Neighbor list builds = 0
Dangerous builds = 0
unfix 1
unfix 2

pair_style    lj/cut/soft 1.0 1.0 1.5
pair_coeff    1 2 0.2 1.0 0.2620000000000001
pair_style    lj/cut/soft 1.0 1.0 1.5
pair_coeff    1 1 0.2 1.0 0.2620000000000001
pair_style    lj/cut/soft 1.0 1.0 1.5
pair_coeff    2 2 0.5 1.0 0.2620000000000001
velocity        all scale 1.0
fix             1 all nve/limit 1.5
fix             2 all langevin 1.0 1.0 1 52690
thermo_style    custom step temp press pe ke
thermo          100
run             100
Per MPI rank memory allocation (min/avg/max) = 5.555 | 5.555 | 5.555 Mbytes
Step Temp Press PotEng KinEng 
  103700            1 -0.0046875882    20.407972        1.485 
  103800    1.0319606 -0.011227809    20.518997    1.5324615 
Loop time of 0.00183201 on 1 procs for 100 steps with 100 atoms

Performance: 23580678.397 tau/day, 54584.904 timesteps/s
99.8% CPU use with 1 MPI tasks x 1 OpenMP threads

MPI task timing breakdown:
Section |  min time  |  avg time  |  max time  |%varavg| %total
---------------------------------------------------------------
Pair    | 0.00084972 | 0.00084972 | 0.00084972 |   0.0 | 46.38
Bond    | 0.00017357 | 0.00017357 | 0.00017357 |   0.0 |  9.47
Neigh   | 0          | 0          | 0          |   0.0 |  0.00
Comm    | 0.00015163 | 0.00015163 | 0.00015163 |   0.0 |  8.28
Output  | 5.9605e-06 | 5.9605e-06 | 5.9605e-06 |   0.0 |  0.33
Modify  | 0.00059867 | 0.00059867 | 0.00059867 |   0.0 | 32.68
Other   |            | 5.245e-05  |            |       |  2.86

Nlocal:    100 ave 100 max 100 min
Histogram: 1 0 0 0 0 0 0 0 0 0
Nghost:    392 ave 392 max 392 min
Histogram: 1 0 0 0 0 0 0 0 0 0
Neighs:    1634 ave 1634 max 1634 min
Histogram: 1 0 0 0 0 0 0 0 0 0

Total # of neighbors = 1634
Ave neighs/atom = 16.34
Ave special neighs/atom = 1.98
Neighbor list builds = 0
Dangerous builds = 0
unfix 1
unfix 2

pair_style    lj/cut/soft 1.0 1.0 1.5
pair_coeff    1 2 0.2 1.0 0.27100000000000013
pair_style    lj/cut/soft 1.0 1.0 1.5
pair_coeff    1 1 0.2 1.0 0.27100000000000013
pair_style    lj/cut/soft 1.0 1.0 1.5
pair_coeff    2 2 0.5 1.0 0.27100000000000013
velocity        all scale 1.0
fix             1 all nve/limit 1.5
fix             2 all langevin 1.0 1.0 1 52690
thermo_style    custom step temp press pe ke
thermo          100
run             100
Per MPI rank memory allocation (min/avg/max) = 5.555 | 5.555 | 5.555 Mbytes
Step Temp Press PotEng KinEng 
  103800            1 -0.011498958    20.527711        1.485 
  103900    1.0851748 0.0081941703     20.53052    1.6114846 
Loop time of 0.00177312 on 1 procs for 100 steps with 100 atoms

Performance: 24363847.358 tau/day, 56397.795 timesteps/s
99.5% CPU use with 1 MPI tasks x 1 OpenMP threads

MPI task timing breakdown:
Section |  min time  |  avg time  |  max time  |%varavg| %total
---------------------------------------------------------------
Pair    | 0.00079465 | 0.00079465 | 0.00079465 |   0.0 | 44.82
Bond    | 0.00016689 | 0.00016689 | 0.00016689 |   0.0 |  9.41
Neigh   | 0          | 0          | 0          |   0.0 |  0.00
Comm    | 0.00015712 | 0.00015712 | 0.00015712 |   0.0 |  8.86
Output  | 1.0967e-05 | 1.0967e-05 | 1.0967e-05 |   0.0 |  0.62
Modify  | 0.00059438 | 0.00059438 | 0.00059438 |   0.0 | 33.52
Other   |            | 4.911e-05  |            |       |  2.77

Nlocal:    100 ave 100 max 100 min
Histogram: 1 0 0 0 0 0 0 0 0 0
Nghost:    390 ave 390 max 390 min
Histogram: 1 0 0 0 0 0 0 0 0 0
Neighs:    1594 ave 1594 max 1594 min
Histogram: 1 0 0 0 0 0 0 0 0 0

Total # of neighbors = 1594
Ave neighs/atom = 15.94
Ave special neighs/atom = 1.98
Neighbor list builds = 0
Dangerous builds = 0
unfix 1
unfix 2

pair_style    lj/cut/soft 1.0 1.0 1.5
pair_coeff    1 2 0.2 1.0 0.28000000000000014
pair_style    lj/cut/soft 1.0 1.0 1.5
pair_coeff    1 1 0.2 1.0 0.28000000000000014
pair_style    lj/cut/soft 1.0 1.0 1.5
pair_coeff    2 2 0.5 1.0 0.28000000000000014
velocity        all scale 1.0
fix             1 all nve/limit 1.5
fix             2 all langevin 1.0 1.0 1 52690
thermo_style    custom step temp press pe ke
thermo          100
run             100
Per MPI rank memory allocation (min/avg/max) = 5.555 | 5.555 | 5.555 Mbytes
Step Temp Press PotEng KinEng 
  103900            1 0.0072669668    20.537291        1.485 
  104000    1.0033411 -0.0037824739     20.51124    1.4899616 
Loop time of 0.0019269 on 1 procs for 100 steps with 100 atoms

Performance: 22419442.316 tau/day, 51896.857 timesteps/s
99.5% CPU use with 1 MPI tasks x 1 OpenMP threads

MPI task timing breakdown:
Section |  min time  |  avg time  |  max time  |%varavg| %total
---------------------------------------------------------------
Pair    | 0.00082397 | 0.00082397 | 0.00082397 |   0.0 | 42.76
Bond    | 0.00017762 | 0.00017762 | 0.00017762 |   0.0 |  9.22
Neigh   | 0          | 0          | 0          |   0.0 |  0.00
Comm    | 0.00014234 | 0.00014234 | 0.00014234 |   0.0 |  7.39
Output  | 1.7881e-05 | 1.7881e-05 | 1.7881e-05 |   0.0 |  0.93
Modify  | 0.00070786 | 0.00070786 | 0.00070786 |   0.0 | 36.74
Other   |            | 5.722e-05  |            |       |  2.97

Nlocal:    100 ave 100 max 100 min
Histogram: 1 0 0 0 0 0 0 0 0 0
Nghost:    366 ave 366 max 366 min
Histogram: 1 0 0 0 0 0 0 0 0 0
Neighs:    1581 ave 1581 max 1581 min
Histogram: 1 0 0 0 0 0 0 0 0 0

Total # of neighbors = 1581
Ave neighs/atom = 15.81
Ave special neighs/atom = 1.98
Neighbor list builds = 0
Dangerous builds = 0
unfix 1
unfix 2

pair_style    lj/cut/soft 1.0 1.0 1.5
pair_coeff    1 2 0.2 1.0 0.28900000000000015
pair_style    lj/cut/soft 1.0 1.0 1.5
pair_coeff    1 1 0.2 1.0 0.28900000000000015
pair_style    lj/cut/soft 1.0 1.0 1.5
pair_coeff    2 2 0.5 1.0 0.28900000000000015
velocity        all scale 1.0
fix             1 all nve/limit 1.5
fix             2 all langevin 1.0 1.0 1 52690
thermo_style    custom step temp press pe ke
thermo          100
run             100
Per MPI rank memory allocation (min/avg/max) = 5.555 | 5.555 | 5.555 Mbytes
Step Temp Press PotEng KinEng 
  104000            1 -0.0036990012    20.516936        1.485 
  104100    1.0214049  0.018016956    20.568099    1.5167862 
Loop time of 0.0017159 on 1 procs for 100 steps with 100 atoms

Performance: 25176314.131 tau/day, 58278.505 timesteps/s
99.8% CPU use with 1 MPI tasks x 1 OpenMP threads

MPI task timing breakdown:
Section |  min time  |  avg time  |  max time  |%varavg| %total
---------------------------------------------------------------
Pair    | 0.00073743 | 0.00073743 | 0.00073743 |   0.0 | 42.98
Bond    | 0.0001719  | 0.0001719  | 0.0001719  |   0.0 | 10.02
Neigh   | 0          | 0          | 0          |   0.0 |  0.00
Comm    | 0.00013781 | 0.00013781 | 0.00013781 |   0.0 |  8.03
Output  | 7.1526e-06 | 7.1526e-06 | 7.1526e-06 |   0.0 |  0.42
Modify  | 0.00060916 | 0.00060916 | 0.00060916 |   0.0 | 35.50
Other   |            | 5.245e-05  |            |       |  3.06

Nlocal:    100 ave 100 max 100 min
Histogram: 1 0 0 0 0 0 0 0 0 0
Nghost:    360 ave 360 max 360 min
Histogram: 1 0 0 0 0 0 0 0 0 0
Neighs:    1554 ave 1554 max 1554 min
Histogram: 1 0 0 0 0 0 0 0 0 0

Total # of neighbors = 1554
Ave neighs/atom = 15.54
Ave special neighs/atom = 1.98
Neighbor list builds = 0
Dangerous builds = 0
unfix 1
unfix 2

pair_style    lj/cut/soft 1.0 1.0 1.5
pair_coeff    1 2 0.2 1.0 0.29800000000000015
pair_style    lj/cut/soft 1.0 1.0 1.5
pair_coeff    1 1 0.2 1.0 0.29800000000000015
pair_style    lj/cut/soft 1.0 1.0 1.5
pair_coeff    2 2 0.5 1.0 0.29800000000000015
velocity        all scale 1.0
fix             1 all nve/limit 1.5
fix             2 all langevin 1.0 1.0 1 52690
thermo_style    custom step temp press pe ke
thermo          100
run             100
Per MPI rank memory allocation (min/avg/max) = 5.555 | 5.555 | 5.555 Mbytes
Step Temp Press PotEng KinEng 
  104100            1  0.017855204    20.578585        1.485 
  104200    1.2609341 -0.0038601316    20.618969    1.8724871 
Loop time of 0.00183201 on 1 procs for 100 steps with 100 atoms

Performance: 23580678.397 tau/day, 54584.904 timesteps/s
99.6% CPU use with 1 MPI tasks x 1 OpenMP threads

MPI task timing breakdown:
Section |  min time  |  avg time  |  max time  |%varavg| %total
---------------------------------------------------------------
Pair    | 0.00078893 | 0.00078893 | 0.00078893 |   0.0 | 43.06
Bond    | 0.00017214 | 0.00017214 | 0.00017214 |   0.0 |  9.40
Neigh   | 0          | 0          | 0          |   0.0 |  0.00
Comm    | 0.00019789 | 0.00019789 | 0.00019789 |   0.0 | 10.80
Output  | 1.9073e-05 | 1.9073e-05 | 1.9073e-05 |   0.0 |  1.04
Modify  | 0.0006063  | 0.0006063  | 0.0006063  |   0.0 | 33.09
Other   |            | 4.768e-05  |            |       |  2.60

Nlocal:    100 ave 100 max 100 min
Histogram: 1 0 0 0 0 0 0 0 0 0
Nghost:    338 ave 338 max 338 min
Histogram: 1 0 0 0 0 0 0 0 0 0
Neighs:    1509 ave 1509 max 1509 min
Histogram: 1 0 0 0 0 0 0 0 0 0

Total # of neighbors = 1509
Ave neighs/atom = 15.09
Ave special neighs/atom = 1.98
Neighbor list builds = 0
Dangerous builds = 0
unfix 1
unfix 2

pair_style    lj/cut/soft 1.0 1.0 1.5
pair_coeff    1 2 0.2 1.0 0.30700000000000016
pair_style    lj/cut/soft 1.0 1.0 1.5
pair_coeff    1 1 0.2 1.0 0.30700000000000016
pair_style    lj/cut/soft 1.0 1.0 1.5
pair_coeff    2 2 0.5 1.0 0.30700000000000016
velocity        all scale 1.0
fix             1 all nve/limit 1.5
fix             2 all langevin 1.0 1.0 1 52690
thermo_style    custom step temp press pe ke
thermo          100
run             100
Per MPI rank memory allocation (min/avg/max) = 5.555 | 5.555 | 5.555 Mbytes
Step Temp Press PotEng KinEng 
  104200            1 -0.0069468416    20.631706        1.485 
  104300    1.2818982 -0.013596965    20.658492    1.9036188 
Loop time of 0.00177002 on 1 procs for 100 steps with 100 atoms

Performance: 24406510.345 tau/day, 56496.552 timesteps/s
99.9% CPU use with 1 MPI tasks x 1 OpenMP threads

MPI task timing breakdown:
Section |  min time  |  avg time  |  max time  |%varavg| %total
---------------------------------------------------------------
Pair    | 0.00078607 | 0.00078607 | 0.00078607 |   0.0 | 44.41
Bond    | 0.00017691 | 0.00017691 | 0.00017691 |   0.0 |  9.99
Neigh   | 0          | 0          | 0          |   0.0 |  0.00
Comm    | 0.00013328 | 0.00013328 | 0.00013328 |   0.0 |  7.53
Output  | 7.1526e-06 | 7.1526e-06 | 7.1526e-06 |   0.0 |  0.40
Modify  | 0.00062227 | 0.00062227 | 0.00062227 |   0.0 | 35.16
Other   |            | 4.435e-05  |            |       |  2.51

Nlocal:    100 ave 100 max 100 min
Histogram: 1 0 0 0 0 0 0 0 0 0
Nghost:    310 ave 310 max 310 min
Histogram: 1 0 0 0 0 0 0 0 0 0
Neighs:    1460 ave 1460 max 1460 min
Histogram: 1 0 0 0 0 0 0 0 0 0

Total # of neighbors = 1460
Ave neighs/atom = 14.6
Ave special neighs/atom = 1.98
Neighbor list builds = 0
Dangerous builds = 0
unfix 1
unfix 2

pair_style    lj/cut/soft 1.0 1.0 1.5
pair_coeff    1 2 0.2 1.0 0.31600000000000017
pair_style    lj/cut/soft 1.0 1.0 1.5
pair_coeff    1 1 0.2 1.0 0.31600000000000017
pair_style    lj/cut/soft 1.0 1.0 1.5
pair_coeff    2 2 0.5 1.0 0.31600000000000017
velocity        all scale 1.0
fix             1 all nve/limit 1.5
fix             2 all langevin 1.0 1.0 1 52690
thermo_style    custom step temp press pe ke
thermo          100
run             100
Per MPI rank memory allocation (min/avg/max) = 5.555 | 5.555 | 5.555 Mbytes
Step Temp Press PotEng KinEng 
  104300            1 -0.016913965    20.673889        1.485 
  104400   0.98456362 -0.032594253    20.504572     1.462077 
Loop time of 0.001616 on 1 procs for 100 steps with 100 atoms

Performance: 26732654.588 tau/day, 61881.145 timesteps/s
99.8% CPU use with 1 MPI tasks x 1 OpenMP threads

MPI task timing breakdown:
Section |  min time  |  avg time  |  max time  |%varavg| %total
---------------------------------------------------------------
Pair    | 0.00068736 | 0.00068736 | 0.00068736 |   0.0 | 42.53
Bond    | 0.00016451 | 0.00016451 | 0.00016451 |   0.0 | 10.18
Neigh   | 0          | 0          | 0          |   0.0 |  0.00
Comm    | 0.00012803 | 0.00012803 | 0.00012803 |   0.0 |  7.92
Output  | 5.9605e-06 | 5.9605e-06 | 5.9605e-06 |   0.0 |  0.37
Modify  | 0.00059128 | 0.00059128 | 0.00059128 |   0.0 | 36.59
Other   |            | 3.886e-05  |            |       |  2.40

Nlocal:    100 ave 100 max 100 min
Histogram: 1 0 0 0 0 0 0 0 0 0
Nghost:    297 ave 297 max 297 min
Histogram: 1 0 0 0 0 0 0 0 0 0
Neighs:    1406 ave 1406 max 1406 min
Histogram: 1 0 0 0 0 0 0 0 0 0

Total # of neighbors = 1406
Ave neighs/atom = 14.06
Ave special neighs/atom = 1.98
Neighbor list builds = 0
Dangerous builds = 0
unfix 1
unfix 2

pair_style    lj/cut/soft 1.0 1.0 1.5
pair_coeff    1 2 0.2 1.0 0.3250000000000002
pair_style    lj/cut/soft 1.0 1.0 1.5
pair_coeff    1 1 0.2 1.0 0.3250000000000002
pair_style    lj/cut/soft 1.0 1.0 1.5
pair_coeff    2 2 0.5 1.0 0.3250000000000002
velocity        all scale 1.0
fix             1 all nve/limit 1.5
fix             2 all langevin 1.0 1.0 1 52690
thermo_style    custom step temp press pe ke
thermo          100
run             100
Per MPI rank memory allocation (min/avg/max) = 5.555 | 5.555 | 5.555 Mbytes
Step Temp Press PotEng KinEng 
  104400            1 -0.032253823     20.51203        1.485 
  104500   0.93761405  0.013564793     20.59354    1.3923569 
Loop time of 0.00161791 on 1 procs for 100 steps with 100 atoms

Performance: 26701139.523 tau/day, 61808.193 timesteps/s
99.6% CPU use with 1 MPI tasks x 1 OpenMP threads

MPI task timing breakdown:
Section |  min time  |  avg time  |  max time  |%varavg| %total
---------------------------------------------------------------
Pair    | 0.00065875 | 0.00065875 | 0.00065875 |   0.0 | 40.72
Bond    | 0.00018692 | 0.00018692 | 0.00018692 |   0.0 | 11.55
Neigh   | 0          | 0          | 0          |   0.0 |  0.00
Comm    | 0.00011611 | 0.00011611 | 0.00011611 |   0.0 |  7.18
Output  | 1.0967e-05 | 1.0967e-05 | 1.0967e-05 |   0.0 |  0.68
Modify  | 0.00060248 | 0.00060248 | 0.00060248 |   0.0 | 37.24
Other   |            | 4.268e-05  |            |       |  2.64

Nlocal:    100 ave 100 max 100 min
Histogram: 1 0 0 0 0 0 0 0 0 0
Nghost:    301 ave 301 max 301 min
Histogram: 1 0 0 0 0 0 0 0 0 0
Neighs:    1390 ave 1390 max 1390 min
Histogram: 1 0 0 0 0 0 0 0 0 0

Total # of neighbors = 1390
Ave neighs/atom = 13.9
Ave special neighs/atom = 1.98
Neighbor list builds = 0
Dangerous builds = 0
unfix 1
unfix 2

pair_style    lj/cut/soft 1.0 1.0 1.5
pair_coeff    1 2 0.2 1.0 0.3340000000000002
pair_style    lj/cut/soft 1.0 1.0 1.5
pair_coeff    1 1 0.2 1.0 0.3340000000000002
pair_style    lj/cut/soft 1.0 1.0 1.5
pair_coeff    2 2 0.5 1.0 0.3340000000000002
velocity        all scale 1.0
fix             1 all nve/limit 1.5
fix             2 all langevin 1.0 1.0 1 52690
thermo_style    custom step temp press pe ke
thermo          100
run             100
Per MPI rank memory allocation (min/avg/max) = 5.555 | 5.555 | 5.555 Mbytes
Step Temp Press PotEng KinEng 
  104500            1  0.014441139    20.597423        1.485 
  104600    1.0974657   0.01161201    20.528158    1.6297365 
Loop time of 0.00156903 on 1 procs for 100 steps with 100 atoms

Performance: 27532887.525 tau/day, 63733.536 timesteps/s
99.8% CPU use with 1 MPI tasks x 1 OpenMP threads

MPI task timing breakdown:
Section |  min time  |  avg time  |  max time  |%varavg| %total
---------------------------------------------------------------
Pair    | 0.00064111 | 0.00064111 | 0.00064111 |   0.0 | 40.86
Bond    | 0.00017452 | 0.00017452 | 0.00017452 |   0.0 | 11.12
Neigh   | 0          | 0          | 0          |   0.0 |  0.00
Comm    | 0.00011659 | 0.00011659 | 0.00011659 |   0.0 |  7.43
Output  | 5.9605e-06 | 5.9605e-06 | 5.9605e-06 |   0.0 |  0.38
Modify  | 0.00058746 | 0.00058746 | 0.00058746 |   0.0 | 37.44
Other   |            | 4.339e-05  |            |       |  2.77

Nlocal:    100 ave 100 max 100 min
Histogram: 1 0 0 0 0 0 0 0 0 0
Nghost:    302 ave 302 max 302 min
Histogram: 1 0 0 0 0 0 0 0 0 0
Neighs:    1393 ave 1393 max 1393 min
Histogram: 1 0 0 0 0 0 0 0 0 0

Total # of neighbors = 1393
Ave neighs/atom = 13.93
Ave special neighs/atom = 1.98
Neighbor list builds = 0
Dangerous builds = 0
unfix 1
unfix 2

pair_style    lj/cut/soft 1.0 1.0 1.5
pair_coeff    1 2 0.2 1.0 0.3430000000000002
pair_style    lj/cut/soft 1.0 1.0 1.5
pair_coeff    1 1 0.2 1.0 0.3430000000000002
pair_style    lj/cut/soft 1.0 1.0 1.5
pair_coeff    2 2 0.5 1.0 0.3430000000000002
velocity        all scale 1.0
fix             1 all nve/limit 1.5
fix             2 all langevin 1.0 1.0 1 52690
thermo_style    custom step temp press pe ke
thermo          100
run             100
Per MPI rank memory allocation (min/avg/max) = 5.555 | 5.555 | 5.555 Mbytes
Step Temp Press PotEng KinEng 
  104600            1  0.010498978    20.532193        1.485 
  104700    1.0401318   -0.0233372    20.472699    1.5445957 
Loop time of 0.0015471 on 1 procs for 100 steps with 100 atoms

Performance: 27923244.383 tau/day, 64637.140 timesteps/s
99.7% CPU use with 1 MPI tasks x 1 OpenMP threads

MPI task timing breakdown:
Section |  min time  |  avg time  |  max time  |%varavg| %total
---------------------------------------------------------------
Pair    | 0.00060892 | 0.00060892 | 0.00060892 |   0.0 | 39.36
Bond    | 0.00017285 | 0.00017285 | 0.00017285 |   0.0 | 11.17
Neigh   | 0          | 0          | 0          |   0.0 |  0.00
Comm    | 0.00011587 | 0.00011587 | 0.00011587 |   0.0 |  7.49
Output  | 5.9605e-06 | 5.9605e-06 | 5.9605e-06 |   0.0 |  0.39
Modify  | 0.0005939  | 0.0005939  | 0.0005939  |   0.0 | 38.39
Other   |            | 4.959e-05  |            |       |  3.21

Nlocal:    100 ave 100 max 100 min
Histogram: 1 0 0 0 0 0 0 0 0 0
Nghost:    294 ave 294 max 294 min
Histogram: 1 0 0 0 0 0 0 0 0 0
Neighs:    1383 ave 1383 max 1383 min
Histogram: 1 0 0 0 0 0 0 0 0 0

Total # of neighbors = 1383
Ave neighs/atom = 13.83
Ave special neighs/atom = 1.98
Neighbor list builds = 0
Dangerous builds = 0
unfix 1
unfix 2

pair_style    lj/cut/soft 1.0 1.0 1.5
pair_coeff    1 2 0.2 1.0 0.3520000000000002
pair_style    lj/cut/soft 1.0 1.0 1.5
pair_coeff    1 1 0.2 1.0 0.3520000000000002
pair_style    lj/cut/soft 1.0 1.0 1.5
pair_coeff    2 2 0.5 1.0 0.3520000000000002
velocity        all scale 1.0
fix             1 all nve/limit 1.5
fix             2 all langevin 1.0 1.0 1 52690
thermo_style    custom step temp press pe ke
thermo          100
run             100
Per MPI rank memory allocation (min/avg/max) = 5.555 | 5.555 | 5.555 Mbytes
Step Temp Press PotEng KinEng 
  104700            1  -0.02375211    20.476163        1.485 
  104800     1.081071 -0.014348347    20.458563    1.6053904 
Loop time of 0.00154114 on 1 procs for 100 steps with 100 atoms

Performance: 28031239.604 tau/day, 64887.129 timesteps/s
99.5% CPU use with 1 MPI tasks x 1 OpenMP threads

MPI task timing breakdown:
Section |  min time  |  avg time  |  max time  |%varavg| %total
---------------------------------------------------------------
Pair    | 0.00059915 | 0.00059915 | 0.00059915 |   0.0 | 38.88
Bond    | 0.00016832 | 0.00016832 | 0.00016832 |   0.0 | 10.92
Neigh   | 0          | 0          | 0          |   0.0 |  0.00
Comm    | 0.00012279 | 0.00012279 | 0.00012279 |   0.0 |  7.97
Output  | 1.0014e-05 | 1.0014e-05 | 1.0014e-05 |   0.0 |  0.65
Modify  | 0.00059867 | 0.00059867 | 0.00059867 |   0.0 | 38.85
Other   |            | 4.22e-05   |            |       |  2.74

Nlocal:    100 ave 100 max 100 min
Histogram: 1 0 0 0 0 0 0 0 0 0
Nghost:    286 ave 286 max 286 min
Histogram: 1 0 0 0 0 0 0 0 0 0
Neighs:    1367 ave 1367 max 1367 min
Histogram: 1 0 0 0 0 0 0 0 0 0

Total # of neighbors = 1367
Ave neighs/atom = 13.67
Ave special neighs/atom = 1.98
Neighbor list builds = 0
Dangerous builds = 0
unfix 1
unfix 2

pair_style    lj/cut/soft 1.0 1.0 1.5
pair_coeff    1 2 0.2 1.0 0.3610000000000002
pair_style    lj/cut/soft 1.0 1.0 1.5
pair_coeff    1 1 0.2 1.0 0.3610000000000002
pair_style    lj/cut/soft 1.0 1.0 1.5
pair_coeff    2 2 0.5 1.0 0.3610000000000002
velocity        all scale 1.0
fix             1 all nve/limit 1.5
fix             2 all langevin 1.0 1.0 1 52690
thermo_style    custom step temp press pe ke
thermo          100
run             100
Per MPI rank memory allocation (min/avg/max) = 5.555 | 5.555 | 5.555 Mbytes
Step Temp Press PotEng KinEng 
  104800            1 -0.015218338    20.462946        1.485 
  104900   0.99379212 0.0027506717    20.549611    1.4757813 
Loop time of 0.00152707 on 1 procs for 100 steps with 100 atoms

Performance: 28289450.867 tau/day, 65484.840 timesteps/s
99.7% CPU use with 1 MPI tasks x 1 OpenMP threads

MPI task timing breakdown:
Section |  min time  |  avg time  |  max time  |%varavg| %total
---------------------------------------------------------------
Pair    | 0.00060248 | 0.00060248 | 0.00060248 |   0.0 | 39.45
Bond    | 0.00016713 | 0.00016713 | 0.00016713 |   0.0 | 10.94
Neigh   | 0          | 0          | 0          |   0.0 |  0.00
Comm    | 0.0001173  | 0.0001173  | 0.0001173  |   0.0 |  7.68
Output  | 5.9605e-06 | 5.9605e-06 | 5.9605e-06 |   0.0 |  0.39
Modify  | 0.00058699 | 0.00058699 | 0.00058699 |   0.0 | 38.44
Other   |            | 4.721e-05  |            |       |  3.09

Nlocal:    100 ave 100 max 100 min
Histogram: 1 0 0 0 0 0 0 0 0 0
Nghost:    290 ave 290 max 290 min
Histogram: 1 0 0 0 0 0 0 0 0 0
Neighs:    1377 ave 1377 max 1377 min
Histogram: 1 0 0 0 0 0 0 0 0 0

Total # of neighbors = 1377
Ave neighs/atom = 13.77
Ave special neighs/atom = 1.98
Neighbor list builds = 0
Dangerous builds = 0
unfix 1
unfix 2

pair_style    lj/cut/soft 1.0 1.0 1.5
pair_coeff    1 2 0.2 1.0 0.3700000000000002
pair_style    lj/cut/soft 1.0 1.0 1.5
pair_coeff    1 1 0.2 1.0 0.3700000000000002
pair_style    lj/cut/soft 1.0 1.0 1.5
pair_coeff    2 2 0.5 1.0 0.3700000000000002
velocity        all scale 1.0
fix             1 all nve/limit 1.5
fix             2 all langevin 1.0 1.0 1 52690
thermo_style    custom step temp press pe ke
thermo          100
run             100
Per MPI rank memory allocation (min/avg/max) = 5.555 | 5.555 | 5.555 Mbytes
Step Temp Press PotEng KinEng 
  104900            1 0.0030163484    20.555982        1.485 
  105000    1.1242073 -0.005123296    20.469193    1.6694478 
Loop time of 0.00156283 on 1 procs for 100 steps with 100 atoms

Performance: 27642095.011 tau/day, 63986.331 timesteps/s
99.8% CPU use with 1 MPI tasks x 1 OpenMP threads

MPI task timing breakdown:
Section |  min time  |  avg time  |  max time  |%varavg| %total
---------------------------------------------------------------
Pair    | 0.00063109 | 0.00063109 | 0.00063109 |   0.0 | 40.38
Bond    | 0.00017643 | 0.00017643 | 0.00017643 |   0.0 | 11.29
Neigh   | 0          | 0          | 0          |   0.0 |  0.00
Comm    | 0.00011158 | 0.00011158 | 0.00011158 |   0.0 |  7.14
Output  | 6.9141e-06 | 6.9141e-06 | 6.9141e-06 |   0.0 |  0.44
Modify  | 0.00059175 | 0.00059175 | 0.00059175 |   0.0 | 37.86
Other   |            | 4.506e-05  |            |       |  2.88

Nlocal:    100 ave 100 max 100 min
Histogram: 1 0 0 0 0 0 0 0 0 0
Nghost:    304 ave 304 max 304 min
Histogram: 1 0 0 0 0 0 0 0 0 0
Neighs:    1397 ave 1397 max 1397 min
Histogram: 1 0 0 0 0 0 0 0 0 0

Total # of neighbors = 1397
Ave neighs/atom = 13.97
Ave special neighs/atom = 1.98
Neighbor list builds = 0
Dangerous builds = 0
unfix 1
unfix 2

pair_style    lj/cut/soft 1.0 1.0 1.5
pair_coeff    1 2 0.2 1.0 0.3790000000000002
pair_style    lj/cut/soft 1.0 1.0 1.5
pair_coeff    1 1 0.2 1.0 0.3790000000000002
pair_style    lj/cut/soft 1.0 1.0 1.5
pair_coeff    2 2 0.5 1.0 0.3790000000000002
velocity        all scale 1.0
fix             1 all nve/limit 1.5
fix             2 all langevin 1.0 1.0 1 52690
thermo_style    custom step temp press pe ke
thermo          100
run             100
Per MPI rank memory allocation (min/avg/max) = 5.555 | 5.555 | 5.555 Mbytes
Step Temp Press PotEng KinEng 
  105000            1 -0.0065722926    20.472186        1.485 
  105100    1.0534799  0.011053906    20.454045    1.5644177 
Loop time of 0.00156498 on 1 procs for 100 steps with 100 atoms

Performance: 27604194.516 tau/day, 63898.598 timesteps/s
99.6% CPU use with 1 MPI tasks x 1 OpenMP threads

MPI task timing breakdown:
Section |  min time  |  avg time  |  max time  |%varavg| %total
---------------------------------------------------------------
Pair    | 0.00062013 | 0.00062013 | 0.00062013 |   0.0 | 39.63
Bond    | 0.00017929 | 0.00017929 | 0.00017929 |   0.0 | 11.46
Neigh   | 0          | 0          | 0          |   0.0 |  0.00
Comm    | 0.00012231 | 0.00012231 | 0.00012231 |   0.0 |  7.82
Output  | 1.0967e-05 | 1.0967e-05 | 1.0967e-05 |   0.0 |  0.70
Modify  | 0.00059128 | 0.00059128 | 0.00059128 |   0.0 | 37.78
Other   |            | 4.101e-05  |            |       |  2.62

Nlocal:    100 ave 100 max 100 min
Histogram: 1 0 0 0 0 0 0 0 0 0
Nghost:    310 ave 310 max 310 min
Histogram: 1 0 0 0 0 0 0 0 0 0
Neighs:    1420 ave 1420 max 1420 min
Histogram: 1 0 0 0 0 0 0 0 0 0

Total # of neighbors = 1420
Ave neighs/atom = 14.2
Ave special neighs/atom = 1.98
Neighbor list builds = 0
Dangerous builds = 0
unfix 1
unfix 2

pair_style    lj/cut/soft 1.0 1.0 1.5
pair_coeff    1 2 0.2 1.0 0.38800000000000023
pair_style    lj/cut/soft 1.0 1.0 1.5
pair_coeff    1 1 0.2 1.0 0.38800000000000023
pair_style    lj/cut/soft 1.0 1.0 1.5
pair_coeff    2 2 0.5 1.0 0.38800000000000023
velocity        all scale 1.0
fix             1 all nve/limit 1.5
fix             2 all langevin 1.0 1.0 1 52690
thermo_style    custom step temp press pe ke
thermo          100
run             100
Per MPI rank memory allocation (min/avg/max) = 5.555 | 5.555 | 5.555 Mbytes
Step Temp Press PotEng KinEng 
  105100            1  0.010549933    20.460265        1.485 
  105200    1.0505963 0.0094748483    20.684155    1.5601355 
Loop time of 0.00156212 on 1 procs for 100 steps with 100 atoms

Performance: 27654751.648 tau/day, 64015.629 timesteps/s
99.8% CPU use with 1 MPI tasks x 1 OpenMP threads

MPI task timing breakdown:
Section |  min time  |  avg time  |  max time  |%varavg| %total
---------------------------------------------------------------
Pair    | 0.00061703 | 0.00061703 | 0.00061703 |   0.0 | 39.50
Bond    | 0.00017548 | 0.00017548 | 0.00017548 |   0.0 | 11.23
Neigh   | 0          | 0          | 0          |   0.0 |  0.00
Comm    | 0.00012565 | 0.00012565 | 0.00012565 |   0.0 |  8.04
Output  | 5.9605e-06 | 5.9605e-06 | 5.9605e-06 |   0.0 |  0.38
Modify  | 0.00059128 | 0.00059128 | 0.00059128 |   0.0 | 37.85
Other   |            | 4.673e-05  |            |       |  2.99

Nlocal:    100 ave 100 max 100 min
Histogram: 1 0 0 0 0 0 0 0 0 0
Nghost:    322 ave 322 max 322 min
Histogram: 1 0 0 0 0 0 0 0 0 0
Neighs:    1435 ave 1435 max 1435 min
Histogram: 1 0 0 0 0 0 0 0 0 0

Total # of neighbors = 1435
Ave neighs/atom = 14.35
Ave special neighs/atom = 1.98
Neighbor list builds = 0
Dangerous builds = 0
unfix 1
unfix 2

pair_style    lj/cut/soft 1.0 1.0 1.5
pair_coeff    1 2 0.2 1.0 0.39700000000000024
pair_style    lj/cut/soft 1.0 1.0 1.5
pair_coeff    1 1 0.2 1.0 0.39700000000000024
pair_style    lj/cut/soft 1.0 1.0 1.5
pair_coeff    2 2 0.5 1.0 0.39700000000000024
velocity        all scale 1.0
fix             1 all nve/limit 1.5
fix             2 all langevin 1.0 1.0 1 52690
thermo_style    custom step temp press pe ke
thermo          100
run             100
Per MPI rank memory allocation (min/avg/max) = 5.555 | 5.555 | 5.555 Mbytes
Step Temp Press PotEng KinEng 
  105200            1  0.009036981     20.69466        1.485 
  105300   0.92797787 0.0095646044    20.653507    1.3780471 
Loop time of 0.00168204 on 1 procs for 100 steps with 100 atoms

Performance: 25683052.133 tau/day, 59451.510 timesteps/s
99.3% CPU use with 1 MPI tasks x 1 OpenMP threads

MPI task timing breakdown:
Section |  min time  |  avg time  |  max time  |%varavg| %total
---------------------------------------------------------------
Pair    | 0.00064588 | 0.00064588 | 0.00064588 |   0.0 | 38.40
Bond    | 0.00016761 | 0.00016761 | 0.00016761 |   0.0 |  9.96
Neigh   | 0          | 0          | 0          |   0.0 |  0.00
Comm    | 0.00019503 | 0.00019503 | 0.00019503 |   0.0 | 11.59
Output  | 2.0027e-05 | 2.0027e-05 | 2.0027e-05 |   0.0 |  1.19
Modify  | 0.00061107 | 0.00061107 | 0.00061107 |   0.0 | 36.33
Other   |            | 4.244e-05  |            |       |  2.52

Nlocal:    100 ave 100 max 100 min
Histogram: 1 0 0 0 0 0 0 0 0 0
Nghost:    326 ave 326 max 326 min
Histogram: 1 0 0 0 0 0 0 0 0 0
Neighs:    1431 ave 1431 max 1431 min
Histogram: 1 0 0 0 0 0 0 0 0 0

Total # of neighbors = 1431
Ave neighs/atom = 14.31
Ave special neighs/atom = 1.98
Neighbor list builds = 0
Dangerous builds = 0
unfix 1
unfix 2

pair_style    lj/cut/soft 1.0 1.0 1.5
pair_coeff    1 2 0.2 1.0 0.40600000000000025
pair_style    lj/cut/soft 1.0 1.0 1.5
pair_coeff    1 1 0.2 1.0 0.40600000000000025
pair_style    lj/cut/soft 1.0 1.0 1.5
pair_coeff    2 2 0.5 1.0 0.40600000000000025
velocity        all scale 1.0
fix             1 all nve/limit 1.5
fix             2 all langevin 1.0 1.0 1 52690
thermo_style    custom step temp press pe ke
thermo          100
run             100
Per MPI rank memory allocation (min/avg/max) = 5.555 | 5.555 | 5.555 Mbytes
Step Temp Press PotEng KinEng 
  105300            1  0.010725138    20.663396        1.485 
  105400    1.1404507 0.0033782593    20.597807    1.6935693 
Loop time of 0.00168395 on 1 procs for 100 steps with 100 atoms

Performance: 25653961.886 tau/day, 59384.171 timesteps/s
99.8% CPU use with 1 MPI tasks x 1 OpenMP threads

MPI task timing breakdown:
Section |  min time  |  avg time  |  max time  |%varavg| %total
---------------------------------------------------------------
Pair    | 0.00067925 | 0.00067925 | 0.00067925 |   0.0 | 40.34
Bond    | 0.00017905 | 0.00017905 | 0.00017905 |   0.0 | 10.63
Neigh   | 0          | 0          | 0          |   0.0 |  0.00
Comm    | 0.00013828 | 0.00013828 | 0.00013828 |   0.0 |  8.21
Output  | 7.8678e-06 | 7.8678e-06 | 7.8678e-06 |   0.0 |  0.47
Modify  | 0.00062895 | 0.00062895 | 0.00062895 |   0.0 | 37.35
Other   |            | 5.054e-05  |            |       |  3.00

Nlocal:    100 ave 100 max 100 min
Histogram: 1 0 0 0 0 0 0 0 0 0
Nghost:    324 ave 324 max 324 min
Histogram: 1 0 0 0 0 0 0 0 0 0
Neighs:    1399 ave 1399 max 1399 min
Histogram: 1 0 0 0 0 0 0 0 0 0

Total # of neighbors = 1399
Ave neighs/atom = 13.99
Ave special neighs/atom = 1.98
Neighbor list builds = 0
Dangerous builds = 0
unfix 1
unfix 2

pair_style    lj/cut/soft 1.0 1.0 1.5
pair_coeff    1 2 0.2 1.0 0.41500000000000026
pair_style    lj/cut/soft 1.0 1.0 1.5
pair_coeff    1 1 0.2 1.0 0.41500000000000026
pair_style    lj/cut/soft 1.0 1.0 1.5
pair_coeff    2 2 0.5 1.0 0.41500000000000026
velocity        all scale 1.0
fix             1 all nve/limit 1.5
fix             2 all langevin 1.0 1.0 1 52690
thermo_style    custom step temp press pe ke
thermo          100
run             100
Per MPI rank memory allocation (min/avg/max) = 5.555 | 5.555 | 5.555 Mbytes
Step Temp Press PotEng KinEng 
  105400            1 0.0017372575    20.601329        1.485 
  105500    1.1010011 -0.018659257    20.588153    1.6349866 
Loop time of 0.00168991 on 1 procs for 100 steps with 100 atoms

Performance: 25563478.104 tau/day, 59174.718 timesteps/s
99.7% CPU use with 1 MPI tasks x 1 OpenMP threads

MPI task timing breakdown:
Section |  min time  |  avg time  |  max time  |%varavg| %total
---------------------------------------------------------------
Pair    | 0.00067377 | 0.00067377 | 0.00067377 |   0.0 | 39.87
Bond    | 0.00019169 | 0.00019169 | 0.00019169 |   0.0 | 11.34
Neigh   | 0          | 0          | 0          |   0.0 |  0.00
Comm    | 0.00013709 | 0.00013709 | 0.00013709 |   0.0 |  8.11
Output  | 5.9605e-06 | 5.9605e-06 | 5.9605e-06 |   0.0 |  0.35
Modify  | 0.00062871 | 0.00062871 | 0.00062871 |   0.0 | 37.20
Other   |            | 5.269e-05  |            |       |  3.12

Nlocal:    100 ave 100 max 100 min
Histogram: 1 0 0 0 0 0 0 0 0 0
Nghost:    325 ave 325 max 325 min
Histogram: 1 0 0 0 0 0 0 0 0 0
Neighs:    1407 ave 1407 max 1407 min
Histogram: 1 0 0 0 0 0 0 0 0 0

Total # of neighbors = 1407
Ave neighs/atom = 14.07
Ave special neighs/atom = 1.98
Neighbor list builds = 0
Dangerous builds = 0
unfix 1
unfix 2

pair_style    lj/cut/soft 1.0 1.0 1.5
pair_coeff    1 2 0.2 1.0 0.42400000000000027
pair_style    lj/cut/soft 1.0 1.0 1.5
pair_coeff    1 1 0.2 1.0 0.42400000000000027
pair_style    lj/cut/soft 1.0 1.0 1.5
pair_coeff    2 2 0.5 1.0 0.42400000000000027
velocity        all scale 1.0
fix             1 all nve/limit 1.5
fix             2 all langevin 1.0 1.0 1 52690
thermo_style    custom step temp press pe ke
thermo          100
run             100
Per MPI rank memory allocation (min/avg/max) = 5.555 | 5.555 | 5.555 Mbytes
Step Temp Press PotEng KinEng 
  105500            1 -0.019727591    20.593772        1.485 
  105600    1.0554331 -0.0078120044      20.4671    1.5673181 
Loop time of 0.00162292 on 1 procs for 100 steps with 100 atoms

Performance: 26618764.918 tau/day, 61617.511 timesteps/s
99.8% CPU use with 1 MPI tasks x 1 OpenMP threads

MPI task timing breakdown:
Section |  min time  |  avg time  |  max time  |%varavg| %total
---------------------------------------------------------------
Pair    | 0.0006206  | 0.0006206  | 0.0006206  |   0.0 | 38.24
Bond    | 0.00018334 | 0.00018334 | 0.00018334 |   0.0 | 11.30
Neigh   | 0          | 0          | 0          |   0.0 |  0.00
Comm    | 0.00013852 | 0.00013852 | 0.00013852 |   0.0 |  8.54
Output  | 5.9605e-06 | 5.9605e-06 | 5.9605e-06 |   0.0 |  0.37
Modify  | 0.00062394 | 0.00062394 | 0.00062394 |   0.0 | 38.45
Other   |            | 5.054e-05  |            |       |  3.11

Nlocal:    100 ave 100 max 100 min
Histogram: 1 0 0 0 0 0 0 0 0 0
Nghost:    315 ave 315 max 315 min
Histogram: 1 0 0 0 0 0 0 0 0 0
Neighs:    1387 ave 1387 max 1387 min
Histogram: 1 0 0 0 0 0 0 0 0 0

Total # of neighbors = 1387
Ave neighs/atom = 13.87
Ave special neighs/atom = 1.98
Neighbor list builds = 0
Dangerous builds = 0
unfix 1
unfix 2

pair_style    lj/cut/soft 1.0 1.0 1.5
pair_coeff    1 2 0.2 1.0 0.4330000000000003
pair_style    lj/cut/soft 1.0 1.0 1.5
pair_coeff    1 1 0.2 1.0 0.4330000000000003
pair_style    lj/cut/soft 1.0 1.0 1.5
pair_coeff    2 2 0.5 1.0 0.4330000000000003
velocity        all scale 1.0
fix             1 all nve/limit 1.5
fix             2 all langevin 1.0 1.0 1 52690
thermo_style    custom step temp press pe ke
thermo          100
run             100
Per MPI rank memory allocation (min/avg/max) = 5.555 | 5.555 | 5.555 Mbytes
Step Temp Press PotEng KinEng 
  105600            1 -0.0083900602    20.470237        1.485 
  105700    1.1088729 -0.0018088047    20.492241    1.6466762 
Loop time of 0.00162721 on 1 procs for 100 steps with 100 atoms

Performance: 26548561.582 tau/day, 61455.004 timesteps/s
99.8% CPU use with 1 MPI tasks x 1 OpenMP threads

MPI task timing breakdown:
Section |  min time  |  avg time  |  max time  |%varavg| %total
---------------------------------------------------------------
Pair    | 0.00062299 | 0.00062299 | 0.00062299 |   0.0 | 38.29
Bond    | 0.00018024 | 0.00018024 | 0.00018024 |   0.0 | 11.08
Neigh   | 0          | 0          | 0          |   0.0 |  0.00
Comm    | 0.00013041 | 0.00013041 | 0.00013041 |   0.0 |  8.01
Output  | 6.9141e-06 | 6.9141e-06 | 6.9141e-06 |   0.0 |  0.42
Modify  | 0.00063491 | 0.00063491 | 0.00063491 |   0.0 | 39.02
Other   |            | 5.174e-05  |            |       |  3.18

Nlocal:    100 ave 100 max 100 min
Histogram: 1 0 0 0 0 0 0 0 0 0
Nghost:    319 ave 319 max 319 min
Histogram: 1 0 0 0 0 0 0 0 0 0
Neighs:    1363 ave 1363 max 1363 min
Histogram: 1 0 0 0 0 0 0 0 0 0

Total # of neighbors = 1363
Ave neighs/atom = 13.63
Ave special neighs/atom = 1.98
Neighbor list builds = 0
Dangerous builds = 0
unfix 1
unfix 2

pair_style    lj/cut/soft 1.0 1.0 1.5
pair_coeff    1 2 0.2 1.0 0.4420000000000003
pair_style    lj/cut/soft 1.0 1.0 1.5
pair_coeff    1 1 0.2 1.0 0.4420000000000003
pair_style    lj/cut/soft 1.0 1.0 1.5
pair_coeff    2 2 0.5 1.0 0.4420000000000003
velocity        all scale 1.0
fix             1 all nve/limit 1.5
fix             2 all langevin 1.0 1.0 1 52690
thermo_style    custom step temp press pe ke
thermo          100
run             100
Per MPI rank memory allocation (min/avg/max) = 5.555 | 5.555 | 5.555 Mbytes
Step Temp Press PotEng KinEng 
  105700            1 -0.0030542665    20.495322        1.485 
  105800    1.0342784 -0.014372324     20.70924    1.5359034 
Loop time of 0.00159788 on 1 procs for 100 steps with 100 atoms

Performance: 27035800.179 tau/day, 62582.871 timesteps/s
99.5% CPU use with 1 MPI tasks x 1 OpenMP threads

MPI task timing breakdown:
Section |  min time  |  avg time  |  max time  |%varavg| %total
---------------------------------------------------------------
Pair    | 0.00061631 | 0.00061631 | 0.00061631 |   0.0 | 38.57
Bond    | 0.00017095 | 0.00017095 | 0.00017095 |   0.0 | 10.70
Neigh   | 0          | 0          | 0          |   0.0 |  0.00
Comm    | 0.00012779 | 0.00012779 | 0.00012779 |   0.0 |  8.00
Output  | 1.2159e-05 | 1.2159e-05 | 1.2159e-05 |   0.0 |  0.76
Modify  | 0.00062299 | 0.00062299 | 0.00062299 |   0.0 | 38.99
Other   |            | 4.768e-05  |            |       |  2.98

Nlocal:    100 ave 100 max 100 min
Histogram: 1 0 0 0 0 0 0 0 0 0
Nghost:    320 ave 320 max 320 min
Histogram: 1 0 0 0 0 0 0 0 0 0
Neighs:    1391 ave 1391 max 1391 min
Histogram: 1 0 0 0 0 0 0 0 0 0

Total # of neighbors = 1391
Ave neighs/atom = 13.91
Ave special neighs/atom = 1.98
Neighbor list builds = 0
Dangerous builds = 0
unfix 1
unfix 2

pair_style    lj/cut/soft 1.0 1.0 1.5
pair_coeff    1 2 0.2 1.0 0.4510000000000003
pair_style    lj/cut/soft 1.0 1.0 1.5
pair_coeff    1 1 0.2 1.0 0.4510000000000003
pair_style    lj/cut/soft 1.0 1.0 1.5
pair_coeff    2 2 0.5 1.0 0.4510000000000003
velocity        all scale 1.0
fix             1 all nve/limit 1.5
fix             2 all langevin 1.0 1.0 1 52690
thermo_style    custom step temp press pe ke
thermo          100
run             100
Per MPI rank memory allocation (min/avg/max) = 5.555 | 5.555 | 5.555 Mbytes
Step Temp Press PotEng KinEng 
  105800            1 -0.014707892    20.709917        1.485 
  105900    1.1151671  0.023231379    20.597591    1.6560231 
Loop time of 0.00156903 on 1 procs for 100 steps with 100 atoms

Performance: 27532887.525 tau/day, 63733.536 timesteps/s
99.7% CPU use with 1 MPI tasks x 1 OpenMP threads

MPI task timing breakdown:
Section |  min time  |  avg time  |  max time  |%varavg| %total
---------------------------------------------------------------
Pair    | 0.00062156 | 0.00062156 | 0.00062156 |   0.0 | 39.61
Bond    | 0.00017333 | 0.00017333 | 0.00017333 |   0.0 | 11.05
Neigh   | 0          | 0          | 0          |   0.0 |  0.00
Comm    | 0.0001173  | 0.0001173  | 0.0001173  |   0.0 |  7.48
Output  | 7.1526e-06 | 7.1526e-06 | 7.1526e-06 |   0.0 |  0.46
Modify  | 0.00059819 | 0.00059819 | 0.00059819 |   0.0 | 38.12
Other   |            | 5.15e-05   |            |       |  3.28

Nlocal:    100 ave 100 max 100 min
Histogram: 1 0 0 0 0 0 0 0 0 0
Nghost:    326 ave 326 max 326 min
Histogram: 1 0 0 0 0 0 0 0 0 0
Neighs:    1410 ave 1410 max 1410 min
Histogram: 1 0 0 0 0 0 0 0 0 0

Total # of neighbors = 1410
Ave neighs/atom = 14.1
Ave special neighs/atom = 1.98
Neighbor list builds = 0
Dangerous builds = 0
unfix 1
unfix 2

pair_style    lj/cut/soft 1.0 1.0 1.5
pair_coeff    1 2 0.2 1.0 0.4600000000000003
pair_style    lj/cut/soft 1.0 1.0 1.5
pair_coeff    1 1 0.2 1.0 0.4600000000000003
pair_style    lj/cut/soft 1.0 1.0 1.5
pair_coeff    2 2 0.5 1.0 0.4600000000000003
velocity        all scale 1.0
fix             1 all nve/limit 1.5
fix             2 all langevin 1.0 1.0 1 52690
thermo_style    custom step temp press pe ke
thermo          100
run             100
Per MPI rank memory allocation (min/avg/max) = 5.555 | 5.555 | 5.555 Mbytes
Step Temp Press PotEng KinEng 
  105900            1  0.022041278    20.605272        1.485 
  106000    1.1109766 -0.021760495    20.482339    1.6498003 
Loop time of 0.00156617 on 1 procs for 100 steps with 100 atoms

Performance: 27583183.559 tau/day, 63849.962 timesteps/s
99.7% CPU use with 1 MPI tasks x 1 OpenMP threads

MPI task timing breakdown:
Section |  min time  |  avg time  |  max time  |%varavg| %total
---------------------------------------------------------------
Pair    | 0.00061584 | 0.00061584 | 0.00061584 |   0.0 | 39.32
Bond    | 0.00016499 | 0.00016499 | 0.00016499 |   0.0 | 10.53
Neigh   | 0          | 0          | 0          |   0.0 |  0.00
Comm    | 0.00012279 | 0.00012279 | 0.00012279 |   0.0 |  7.84
Output  | 5.9605e-06 | 5.9605e-06 | 5.9605e-06 |   0.0 |  0.38
Modify  | 0.00060105 | 0.00060105 | 0.00060105 |   0.0 | 38.38
Other   |            | 5.555e-05  |            |       |  3.55

Nlocal:    100 ave 100 max 100 min
Histogram: 1 0 0 0 0 0 0 0 0 0
Nghost:    342 ave 342 max 342 min
Histogram: 1 0 0 0 0 0 0 0 0 0
Neighs:    1404 ave 1404 max 1404 min
Histogram: 1 0 0 0 0 0 0 0 0 0

Total # of neighbors = 1404
Ave neighs/atom = 14.04
Ave special neighs/atom = 1.98
Neighbor list builds = 0
Dangerous builds = 0
unfix 1
unfix 2

pair_style    lj/cut/soft 1.0 1.0 1.5
pair_coeff    1 2 0.2 1.0 0.4690000000000003
pair_style    lj/cut/soft 1.0 1.0 1.5
pair_coeff    1 1 0.2 1.0 0.4690000000000003
pair_style    lj/cut/soft 1.0 1.0 1.5
pair_coeff    2 2 0.5 1.0 0.4690000000000003
velocity        all scale 1.0
fix             1 all nve/limit 1.5
fix             2 all langevin 1.0 1.0 1 52690
thermo_style    custom step temp press pe ke
thermo          100
run             100
Per MPI rank memory allocation (min/avg/max) = 5.555 | 5.555 | 5.555 Mbytes
Step Temp Press PotEng KinEng 
  106000            1 -0.022983906    20.487356        1.485 
  106100    1.0334068 -0.006118603    20.401654    1.5346091 
Loop time of 0.00154519 on 1 procs for 100 steps with 100 atoms

Performance: 27957712.205 tau/day, 64716.926 timesteps/s
99.7% CPU use with 1 MPI tasks x 1 OpenMP threads

MPI task timing breakdown:
Section |  min time  |  avg time  |  max time  |%varavg| %total
---------------------------------------------------------------
Pair    | 0.00057411 | 0.00057411 | 0.00057411 |   0.0 | 37.15
Bond    | 0.00018072 | 0.00018072 | 0.00018072 |   0.0 | 11.70
Neigh   | 0          | 0          | 0          |   0.0 |  0.00
Comm    | 0.0001359  | 0.0001359  | 0.0001359  |   0.0 |  8.79
Output  | 7.8678e-06 | 7.8678e-06 | 7.8678e-06 |   0.0 |  0.51
Modify  | 0.00058722 | 0.00058722 | 0.00058722 |   0.0 | 38.00
Other   |            | 5.937e-05  |            |       |  3.84

Nlocal:    100 ave 100 max 100 min
Histogram: 1 0 0 0 0 0 0 0 0 0
Nghost:    335 ave 335 max 335 min
Histogram: 1 0 0 0 0 0 0 0 0 0
Neighs:    1376 ave 1376 max 1376 min
Histogram: 1 0 0 0 0 0 0 0 0 0

Total # of neighbors = 1376
Ave neighs/atom = 13.76
Ave special neighs/atom = 1.98
Neighbor list builds = 0
Dangerous builds = 0
unfix 1
unfix 2

pair_style    lj/cut/soft 1.0 1.0 1.5
pair_coeff    1 2 0.2 1.0 0.4780000000000003
pair_style    lj/cut/soft 1.0 1.0 1.5
pair_coeff    1 1 0.2 1.0 0.4780000000000003
pair_style    lj/cut/soft 1.0 1.0 1.5
pair_coeff    2 2 0.5 1.0 0.4780000000000003
velocity        all scale 1.0
fix             1 all nve/limit 1.5
fix             2 all langevin 1.0 1.0 1 52690
thermo_style    custom step temp press pe ke
thermo          100
run             100
Per MPI rank memory allocation (min/avg/max) = 5.555 | 5.555 | 5.555 Mbytes
Step Temp Press PotEng KinEng 
  106100            1 -0.0064096741    20.403267        1.485 
  106200   0.98200634  0.011139977    20.342353    1.4582794 
Loop time of 0.00157905 on 1 procs for 100 steps with 100 atoms

Performance: 27358286.698 tau/day, 63329.367 timesteps/s
99.6% CPU use with 1 MPI tasks x 1 OpenMP threads

MPI task timing breakdown:
Section |  min time  |  avg time  |  max time  |%varavg| %total
---------------------------------------------------------------
Pair    | 0.00060797 | 0.00060797 | 0.00060797 |   0.0 | 38.50
Bond    | 0.00016928 | 0.00016928 | 0.00016928 |   0.0 | 10.72
Neigh   | 0          | 0          | 0          |   0.0 |  0.00
Comm    | 0.00014424 | 0.00014424 | 0.00014424 |   0.0 |  9.13
Output  | 1.1206e-05 | 1.1206e-05 | 1.1206e-05 |   0.0 |  0.71
Modify  | 0.00059009 | 0.00059009 | 0.00059009 |   0.0 | 37.37
Other   |            | 5.627e-05  |            |       |  3.56

Nlocal:    100 ave 100 max 100 min
Histogram: 1 0 0 0 0 0 0 0 0 0
Nghost:    343 ave 343 max 343 min
Histogram: 1 0 0 0 0 0 0 0 0 0
Neighs:    1370 ave 1370 max 1370 min
Histogram: 1 0 0 0 0 0 0 0 0 0

Total # of neighbors = 1370
Ave neighs/atom = 13.7
Ave special neighs/atom = 1.98
Neighbor list builds = 0
Dangerous builds = 0
unfix 1
unfix 2

pair_style    lj/cut/soft 1.0 1.0 1.5
pair_coeff    1 2 0.2 1.0 0.4870000000000003
pair_style    lj/cut/soft 1.0 1.0 1.5
pair_coeff    1 1 0.2 1.0 0.4870000000000003
pair_style    lj/cut/soft 1.0 1.0 1.5
pair_coeff    2 2 0.5 1.0 0.4870000000000003
velocity        all scale 1.0
fix             1 all nve/limit 1.5
fix             2 all langevin 1.0 1.0 1 52690
thermo_style    custom step temp press pe ke
thermo          100
run             100
Per MPI rank memory allocation (min/avg/max) = 5.555 | 5.555 | 5.555 Mbytes
Step Temp Press PotEng KinEng 
  106200            1  0.011475553    20.343638        1.485 
  106300    1.1682507 0.0052719061    20.376266    1.7348523 
Loop time of 0.00170398 on 1 procs for 100 steps with 100 atoms

Performance: 25352446.173 tau/day, 58686.218 timesteps/s
99.5% CPU use with 1 MPI tasks x 1 OpenMP threads

MPI task timing breakdown:
Section |  min time  |  avg time  |  max time  |%varavg| %total
---------------------------------------------------------------
Pair    | 0.00060797 | 0.00060797 | 0.00060797 |   0.0 | 35.68
Bond    | 0.00017214 | 0.00017214 | 0.00017214 |   0.0 | 10.10
Neigh   | 0          | 0          | 0          |   0.0 |  0.00
Comm    | 0.00015855 | 0.00015855 | 0.00015855 |   0.0 |  9.30
Output  | 1.7881e-05 | 1.7881e-05 | 1.7881e-05 |   0.0 |  1.05
Modify  | 0.00069594 | 0.00069594 | 0.00069594 |   0.0 | 40.84
Other   |            | 5.15e-05   |            |       |  3.02

Nlocal:    100 ave 100 max 100 min
Histogram: 1 0 0 0 0 0 0 0 0 0
Nghost:    345 ave 345 max 345 min
Histogram: 1 0 0 0 0 0 0 0 0 0
Neighs:    1415 ave 1415 max 1415 min
Histogram: 1 0 0 0 0 0 0 0 0 0

Total # of neighbors = 1415
Ave neighs/atom = 14.15
Ave special neighs/atom = 1.98
Neighbor list builds = 0
Dangerous builds = 0
unfix 1
unfix 2

pair_style    lj/cut/soft 1.0 1.0 1.5
pair_coeff    1 2 0.2 1.0 0.49600000000000033
pair_style    lj/cut/soft 1.0 1.0 1.5
pair_coeff    1 1 0.2 1.0 0.49600000000000033
pair_style    lj/cut/soft 1.0 1.0 1.5
pair_coeff    2 2 0.5 1.0 0.49600000000000033
velocity        all scale 1.0
fix             1 all nve/limit 1.5
fix             2 all langevin 1.0 1.0 1 52690
thermo_style    custom step temp press pe ke
thermo          100
run             100
Per MPI rank memory allocation (min/avg/max) = 5.555 | 5.555 | 5.555 Mbytes
Step Temp Press PotEng KinEng 
  106300            1   0.00332603    20.380818        1.485 
  106400    1.0951673  0.018540659    20.450932    1.6263234 
Loop time of 0.00173521 on 1 procs for 100 steps with 100 atoms

Performance: 24896116.076 tau/day, 57629.898 timesteps/s
99.4% CPU use with 1 MPI tasks x 1 OpenMP threads

MPI task timing breakdown:
Section |  min time  |  avg time  |  max time  |%varavg| %total
---------------------------------------------------------------
Pair    | 0.00063086 | 0.00063086 | 0.00063086 |   0.0 | 36.36
Bond    | 0.00018358 | 0.00018358 | 0.00018358 |   0.0 | 10.58
Neigh   | 0          | 0          | 0          |   0.0 |  0.00
Comm    | 0.00015426 | 0.00015426 | 0.00015426 |   0.0 |  8.89
Output  | 1.7881e-05 | 1.7881e-05 | 1.7881e-05 |   0.0 |  1.03
Modify  | 0.00069928 | 0.00069928 | 0.00069928 |   0.0 | 40.30
Other   |            | 4.935e-05  |            |       |  2.84

Nlocal:    100 ave 100 max 100 min
Histogram: 1 0 0 0 0 0 0 0 0 0
Nghost:    368 ave 368 max 368 min
Histogram: 1 0 0 0 0 0 0 0 0 0
Neighs:    1420 ave 1420 max 1420 min
Histogram: 1 0 0 0 0 0 0 0 0 0

Total # of neighbors = 1420
Ave neighs/atom = 14.2
Ave special neighs/atom = 1.98
Neighbor list builds = 0
Dangerous builds = 0
unfix 1
unfix 2

pair_style    lj/cut/soft 1.0 1.0 1.5
pair_coeff    1 2 0.2 1.0 0.5050000000000003
pair_style    lj/cut/soft 1.0 1.0 1.5
pair_coeff    1 1 0.2 1.0 0.5050000000000003
pair_style    lj/cut/soft 1.0 1.0 1.5
pair_coeff    2 2 0.5 1.0 0.5050000000000003
velocity        all scale 1.0
fix             1 all nve/limit 1.5
fix             2 all langevin 1.0 1.0 1 52690
thermo_style    custom step temp press pe ke
thermo          100
run             100
Per MPI rank memory allocation (min/avg/max) = 5.555 | 5.555 | 5.555 Mbytes
Step Temp Press PotEng KinEng 
  106400            1  0.017459573    20.451191        1.485 
  106500    1.0142144 -0.011885896    20.642471    1.5061084 
Loop time of 0.00161886 on 1 procs for 100 steps with 100 atoms

Performance: 26685409.838 tau/day, 61771.782 timesteps/s
99.8% CPU use with 1 MPI tasks x 1 OpenMP threads

MPI task timing breakdown:
Section |  min time  |  avg time  |  max time  |%varavg| %total
---------------------------------------------------------------
Pair    | 0.00058293 | 0.00058293 | 0.00058293 |   0.0 | 36.01
Bond    | 0.0001843  | 0.0001843  | 0.0001843  |   0.0 | 11.38
Neigh   | 0          | 0          | 0          |   0.0 |  0.00
Comm    | 0.00014186 | 0.00014186 | 0.00014186 |   0.0 |  8.76
Output  | 6.9141e-06 | 6.9141e-06 | 6.9141e-06 |   0.0 |  0.43
Modify  | 0.00063372 | 0.00063372 | 0.00063372 |   0.0 | 39.15
Other   |            | 6.914e-05  |            |       |  4.27

Nlocal:    100 ave 100 max 100 min
Histogram: 1 0 0 0 0 0 0 0 0 0
Nghost:    373 ave 373 max 373 min
Histogram: 1 0 0 0 0 0 0 0 0 0
Neighs:    1375 ave 1375 max 1375 min
Histogram: 1 0 0 0 0 0 0 0 0 0

Total # of neighbors = 1375
Ave neighs/atom = 13.75
Ave special neighs/atom = 1.98
Neighbor list builds = 0
Dangerous builds = 0
unfix 1
unfix 2

pair_style    lj/cut/soft 1.0 1.0 1.5
pair_coeff    1 2 0.2 1.0 0.5140000000000003
pair_style    lj/cut/soft 1.0 1.0 1.5
pair_coeff    1 1 0.2 1.0 0.5140000000000003
pair_style    lj/cut/soft 1.0 1.0 1.5
pair_coeff    2 2 0.5 1.0 0.5140000000000003
velocity        all scale 1.0
fix             1 all nve/limit 1.5
fix             2 all langevin 1.0 1.0 1 52690
thermo_style    custom step temp press pe ke
thermo          100
run             100
Per MPI rank memory allocation (min/avg/max) = 5.555 | 5.555 | 5.555 Mbytes
Step Temp Press PotEng KinEng 
  106500            1 -0.011875209    20.646998        1.485 
  106600     1.082728 0.0097978989    20.557647    1.6078511 
Loop time of 0.00164795 on 1 procs for 100 steps with 100 atoms

Performance: 26214400.000 tau/day, 60681.481 timesteps/s
99.8% CPU use with 1 MPI tasks x 1 OpenMP threads

MPI task timing breakdown:
Section |  min time  |  avg time  |  max time  |%varavg| %total
---------------------------------------------------------------
Pair    | 0.0006187  | 0.0006187  | 0.0006187  |   0.0 | 37.54
Bond    | 0.00019026 | 0.00019026 | 0.00019026 |   0.0 | 11.55
Neigh   | 0          | 0          | 0          |   0.0 |  0.00
Comm    | 0.00015259 | 0.00015259 | 0.00015259 |   0.0 |  9.26
Output  | 6.9141e-06 | 6.9141e-06 | 6.9141e-06 |   0.0 |  0.42
Modify  | 0.00063515 | 0.00063515 | 0.00063515 |   0.0 | 38.54
Other   |            | 4.435e-05  |            |       |  2.69

Nlocal:    100 ave 100 max 100 min
Histogram: 1 0 0 0 0 0 0 0 0 0
Nghost:    367 ave 367 max 367 min
Histogram: 1 0 0 0 0 0 0 0 0 0
Neighs:    1373 ave 1373 max 1373 min
Histogram: 1 0 0 0 0 0 0 0 0 0

Total # of neighbors = 1373
Ave neighs/atom = 13.73
Ave special neighs/atom = 1.98
Neighbor list builds = 0
Dangerous builds = 0
unfix 1
unfix 2

pair_style    lj/cut/soft 1.0 1.0 1.5
pair_coeff    1 2 0.2 1.0 0.5230000000000004
pair_style    lj/cut/soft 1.0 1.0 1.5
pair_coeff    1 1 0.2 1.0 0.5230000000000004
pair_style    lj/cut/soft 1.0 1.0 1.5
pair_coeff    2 2 0.5 1.0 0.5230000000000004
velocity        all scale 1.0
fix             1 all nve/limit 1.5
fix             2 all langevin 1.0 1.0 1 52690
thermo_style    custom step temp press pe ke
thermo          100
run             100
Per MPI rank memory allocation (min/avg/max) = 5.555 | 5.555 | 5.555 Mbytes
Step Temp Press PotEng KinEng 
  106600            1 0.0089126203    20.559226        1.485 
  106700    1.1426263 -0.012881399    20.490127       1.6968 
Loop time of 0.00176191 on 1 procs for 100 steps with 100 atoms

Performance: 24518800.108 tau/day, 56756.482 timesteps/s
99.6% CPU use with 1 MPI tasks x 1 OpenMP threads

MPI task timing breakdown:
Section |  min time  |  avg time  |  max time  |%varavg| %total
---------------------------------------------------------------
Pair    | 0.00064707 | 0.00064707 | 0.00064707 |   0.0 | 36.73
Bond    | 0.00023746 | 0.00023746 | 0.00023746 |   0.0 | 13.48
Neigh   | 0          | 0          | 0          |   0.0 |  0.00
Comm    | 0.00016284 | 0.00016284 | 0.00016284 |   0.0 |  9.24
Output  | 1.812e-05  | 1.812e-05  | 1.812e-05  |   0.0 |  1.03
Modify  | 0.00063825 | 0.00063825 | 0.00063825 |   0.0 | 36.22
Other   |            | 5.817e-05  |            |       |  3.30

Nlocal:    100 ave 100 max 100 min
Histogram: 1 0 0 0 0 0 0 0 0 0
Nghost:    377 ave 377 max 377 min
Histogram: 1 0 0 0 0 0 0 0 0 0
Neighs:    1378 ave 1378 max 1378 min
Histogram: 1 0 0 0 0 0 0 0 0 0

Total # of neighbors = 1378
Ave neighs/atom = 13.78
Ave special neighs/atom = 1.98
Neighbor list builds = 0
Dangerous builds = 0
unfix 1
unfix 2

pair_style    lj/cut/soft 1.0 1.0 1.5
pair_coeff    1 2 0.2 1.0 0.5320000000000004
pair_style    lj/cut/soft 1.0 1.0 1.5
pair_coeff    1 1 0.2 1.0 0.5320000000000004
pair_style    lj/cut/soft 1.0 1.0 1.5
pair_coeff    2 2 0.5 1.0 0.5320000000000004
velocity        all scale 1.0
fix             1 all nve/limit 1.5
fix             2 all langevin 1.0 1.0 1 52690
thermo_style    custom step temp press pe ke
thermo          100
run             100
Per MPI rank memory allocation (min/avg/max) = 5.555 | 5.555 | 5.555 Mbytes
Step Temp Press PotEng KinEng 
  106700            1 -0.014490626    20.491757        1.485 
  106800    1.0270807 0.0096572053    20.547507    1.5252148 
Loop time of 0.00162387 on 1 procs for 100 steps with 100 atoms

Performance: 26603132.110 tau/day, 61581.324 timesteps/s
100.7% CPU use with 1 MPI tasks x 1 OpenMP threads

MPI task timing breakdown:
Section |  min time  |  avg time  |  max time  |%varavg| %total
---------------------------------------------------------------
Pair    | 0.0005846  | 0.0005846  | 0.0005846  |   0.0 | 36.00
Bond    | 0.00018477 | 0.00018477 | 0.00018477 |   0.0 | 11.38
Neigh   | 0          | 0          | 0          |   0.0 |  0.00
Comm    | 0.00016975 | 0.00016975 | 0.00016975 |   0.0 | 10.45
Output  | 6.9141e-06 | 6.9141e-06 | 6.9141e-06 |   0.0 |  0.43
Modify  | 0.00063133 | 0.00063133 | 0.00063133 |   0.0 | 38.88
Other   |            | 4.649e-05  |            |       |  2.86

Nlocal:    100 ave 100 max 100 min
Histogram: 1 0 0 0 0 0 0 0 0 0
Nghost:    383 ave 383 max 383 min
Histogram: 1 0 0 0 0 0 0 0 0 0
Neighs:    1327 ave 1327 max 1327 min
Histogram: 1 0 0 0 0 0 0 0 0 0

Total # of neighbors = 1327
Ave neighs/atom = 13.27
Ave special neighs/atom = 1.98
Neighbor list builds = 0
Dangerous builds = 0
unfix 1
unfix 2

pair_style    lj/cut/soft 1.0 1.0 1.5
pair_coeff    1 2 0.2 1.0 0.5410000000000004
pair_style    lj/cut/soft 1.0 1.0 1.5
pair_coeff    1 1 0.2 1.0 0.5410000000000004
pair_style    lj/cut/soft 1.0 1.0 1.5
pair_coeff    2 2 0.5 1.0 0.5410000000000004
velocity        all scale 1.0
fix             1 all nve/limit 1.5
fix             2 all langevin 1.0 1.0 1 52690
thermo_style    custom step temp press pe ke
thermo          100
run             100
Per MPI rank memory allocation (min/avg/max) = 5.555 | 5.555 | 5.555 Mbytes
Step Temp Press PotEng KinEng 
  106800            1 0.0094641549    20.548593        1.485 
  106900    1.0345584 -0.0089348429    20.564809    1.5363192 
Loop time of 0.00158501 on 1 procs for 100 steps with 100 atoms

Performance: 27255405.054 tau/day, 63091.215 timesteps/s
99.7% CPU use with 1 MPI tasks x 1 OpenMP threads

MPI task timing breakdown:
Section |  min time  |  avg time  |  max time  |%varavg| %total
---------------------------------------------------------------
Pair    | 0.00055957 | 0.00055957 | 0.00055957 |   0.0 | 35.30
Bond    | 0.00018644 | 0.00018644 | 0.00018644 |   0.0 | 11.76
Neigh   | 0          | 0          | 0          |   0.0 |  0.00
Comm    | 0.00015283 | 0.00015283 | 0.00015283 |   0.0 |  9.64
Output  | 5.9605e-06 | 5.9605e-06 | 5.9605e-06 |   0.0 |  0.38
Modify  | 0.00062418 | 0.00062418 | 0.00062418 |   0.0 | 39.38
Other   |            | 5.603e-05  |            |       |  3.53

Nlocal:    100 ave 100 max 100 min
Histogram: 1 0 0 0 0 0 0 0 0 0
Nghost:    372 ave 372 max 372 min
Histogram: 1 0 0 0 0 0 0 0 0 0
Neighs:    1311 ave 1311 max 1311 min
Histogram: 1 0 0 0 0 0 0 0 0 0

Total # of neighbors = 1311
Ave neighs/atom = 13.11
Ave special neighs/atom = 1.98
Neighbor list builds = 0
Dangerous builds = 0
unfix 1
unfix 2

pair_style    lj/cut/soft 1.0 1.0 1.5
pair_coeff    1 2 0.2 1.0 0.5500000000000004
pair_style    lj/cut/soft 1.0 1.0 1.5
pair_coeff    1 1 0.2 1.0 0.5500000000000004
pair_style    lj/cut/soft 1.0 1.0 1.5
pair_coeff    2 2 0.5 1.0 0.5500000000000004
velocity        all scale 1.0
fix             1 all nve/limit 1.5
fix             2 all langevin 1.0 1.0 1 52690
thermo_style    custom step temp press pe ke
thermo          100
run             100
Per MPI rank memory allocation (min/avg/max) = 5.555 | 5.555 | 5.555 Mbytes
Step Temp Press PotEng KinEng 
  106900            1 -0.0092408534    20.565989        1.485 
  107000    1.1531351 -0.0070110645    20.513534    1.7124057 
Loop time of 0.00153995 on 1 procs for 100 steps with 100 atoms

Performance: 28052938.969 tau/day, 64937.359 timesteps/s
99.7% CPU use with 1 MPI tasks x 1 OpenMP threads

MPI task timing breakdown:
Section |  min time  |  avg time  |  max time  |%varavg| %total
---------------------------------------------------------------
Pair    | 0.00053096 | 0.00053096 | 0.00053096 |   0.0 | 34.48
Bond    | 0.00017262 | 0.00017262 | 0.00017262 |   0.0 | 11.21
Neigh   | 0          | 0          | 0          |   0.0 |  0.00
Comm    | 0.0001483  | 0.0001483  | 0.0001483  |   0.0 |  9.63
Output  | 7.8678e-06 | 7.8678e-06 | 7.8678e-06 |   0.0 |  0.51
Modify  | 0.00061893 | 0.00061893 | 0.00061893 |   0.0 | 40.19
Other   |            | 6.127e-05  |            |       |  3.98

Nlocal:    100 ave 100 max 100 min
Histogram: 1 0 0 0 0 0 0 0 0 0
Nghost:    358 ave 358 max 358 min
Histogram: 1 0 0 0 0 0 0 0 0 0
Neighs:    1310 ave 1310 max 1310 min
Histogram: 1 0 0 0 0 0 0 0 0 0

Total # of neighbors = 1310
Ave neighs/atom = 13.1
Ave special neighs/atom = 1.98
Neighbor list builds = 0
Dangerous builds = 0
unfix 1
unfix 2

pair_style    lj/cut/soft 1.0 1.0 1.5
pair_coeff    1 2 0.2 1.0 0.5590000000000004
pair_style    lj/cut/soft 1.0 1.0 1.5
pair_coeff    1 1 0.2 1.0 0.5590000000000004
pair_style    lj/cut/soft 1.0 1.0 1.5
pair_coeff    2 2 0.5 1.0 0.5590000000000004
velocity        all scale 1.0
fix             1 all nve/limit 1.5
fix             2 all langevin 1.0 1.0 1 52690
thermo_style    custom step temp press pe ke
thermo          100
run             100
Per MPI rank memory allocation (min/avg/max) = 5.555 | 5.555 | 5.555 Mbytes
Step Temp Press PotEng KinEng 
  107000            1 -0.0088479959    20.513462        1.485 
  107100    1.0916301 -0.012457003    20.586129    1.6210707 
Loop time of 0.0014739 on 1 procs for 100 steps with 100 atoms

Performance: 29309921.191 tau/day, 67847.040 timesteps/s
99.8% CPU use with 1 MPI tasks x 1 OpenMP threads

MPI task timing breakdown:
Section |  min time  |  avg time  |  max time  |%varavg| %total
---------------------------------------------------------------
Pair    | 0.0005188  | 0.0005188  | 0.0005188  |   0.0 | 35.20
Bond    | 0.00017262 | 0.00017262 | 0.00017262 |   0.0 | 11.71
Neigh   | 0          | 0          | 0          |   0.0 |  0.00
Comm    | 0.00014496 | 0.00014496 | 0.00014496 |   0.0 |  9.84
Output  | 5.9605e-06 | 5.9605e-06 | 5.9605e-06 |   0.0 |  0.40
Modify  | 0.00057888 | 0.00057888 | 0.00057888 |   0.0 | 39.28
Other   |            | 5.269e-05  |            |       |  3.57

Nlocal:    100 ave 100 max 100 min
Histogram: 1 0 0 0 0 0 0 0 0 0
Nghost:    366 ave 366 max 366 min
Histogram: 1 0 0 0 0 0 0 0 0 0
Neighs:    1278 ave 1278 max 1278 min
Histogram: 1 0 0 0 0 0 0 0 0 0

Total # of neighbors = 1278
Ave neighs/atom = 12.78
Ave special neighs/atom = 1.98
Neighbor list builds = 0
Dangerous builds = 0
unfix 1
unfix 2

pair_style    lj/cut/soft 1.0 1.0 1.5
pair_coeff    1 2 0.2 1.0 0.5680000000000004
pair_style    lj/cut/soft 1.0 1.0 1.5
pair_coeff    1 1 0.2 1.0 0.5680000000000004
pair_style    lj/cut/soft 1.0 1.0 1.5
pair_coeff    2 2 0.5 1.0 0.5680000000000004
velocity        all scale 1.0
fix             1 all nve/limit 1.5
fix             2 all langevin 1.0 1.0 1 52690
thermo_style    custom step temp press pe ke
thermo          100
run             100
Per MPI rank memory allocation (min/avg/max) = 5.555 | 5.555 | 5.555 Mbytes
Step Temp Press PotEng KinEng 
  107100            1 -0.013504138    20.586718        1.485 
  107200   0.93817177 -1.4846249e-05    20.658238    1.3931851 
Loop time of 0.00149703 on 1 procs for 100 steps with 100 atoms

Performance: 28857132.155 tau/day, 66798.917 timesteps/s
99.6% CPU use with 1 MPI tasks x 1 OpenMP threads

MPI task timing breakdown:
Section |  min time  |  avg time  |  max time  |%varavg| %total
---------------------------------------------------------------
Pair    | 0.00051355 | 0.00051355 | 0.00051355 |   0.0 | 34.30
Bond    | 0.00017047 | 0.00017047 | 0.00017047 |   0.0 | 11.39
Neigh   | 0          | 0          | 0          |   0.0 |  0.00
Comm    | 0.000144   | 0.000144   | 0.000144   |   0.0 |  9.62
Output  | 1.0967e-05 | 1.0967e-05 | 1.0967e-05 |   0.0 |  0.73
Modify  | 0.00060654 | 0.00060654 | 0.00060654 |   0.0 | 40.52
Other   |            | 5.15e-05   |            |       |  3.44

Nlocal:    100 ave 100 max 100 min
Histogram: 1 0 0 0 0 0 0 0 0 0
Nghost:    366 ave 366 max 366 min
Histogram: 1 0 0 0 0 0 0 0 0 0
Neighs:    1213 ave 1213 max 1213 min
Histogram: 1 0 0 0 0 0 0 0 0 0

Total # of neighbors = 1213
Ave neighs/atom = 12.13
Ave special neighs/atom = 1.98
Neighbor list builds = 0
Dangerous builds = 0
unfix 1
unfix 2

pair_style    lj/cut/soft 1.0 1.0 1.5
pair_coeff    1 2 0.2 1.0 0.5770000000000004
pair_style    lj/cut/soft 1.0 1.0 1.5
pair_coeff    1 1 0.2 1.0 0.5770000000000004
pair_style    lj/cut/soft 1.0 1.0 1.5
pair_coeff    2 2 0.5 1.0 0.5770000000000004
velocity        all scale 1.0
fix             1 all nve/limit 1.5
fix             2 all langevin 1.0 1.0 1 52690
thermo_style    custom step temp press pe ke
thermo          100
run             100
Per MPI rank memory allocation (min/avg/max) = 5.555 | 5.555 | 5.555 Mbytes
Step Temp Press PotEng KinEng 
  107200            1 0.00097289467     20.66086        1.485 
  107300    1.0281972  0.022212819    20.550927    1.5268728 
Loop time of 0.00148106 on 1 procs for 100 steps with 100 atoms

Performance: 29168372.956 tau/day, 67519.382 timesteps/s
99.8% CPU use with 1 MPI tasks x 1 OpenMP threads

MPI task timing breakdown:
Section |  min time  |  avg time  |  max time  |%varavg| %total
---------------------------------------------------------------
Pair    | 0.00051379 | 0.00051379 | 0.00051379 |   0.0 | 34.69
Bond    | 0.00017762 | 0.00017762 | 0.00017762 |   0.0 | 11.99
Neigh   | 0          | 0          | 0          |   0.0 |  0.00
Comm    | 0.00012875 | 0.00012875 | 0.00012875 |   0.0 |  8.69
Output  | 6.9141e-06 | 6.9141e-06 | 6.9141e-06 |   0.0 |  0.47
Modify  | 0.00059676 | 0.00059676 | 0.00059676 |   0.0 | 40.29
Other   |            | 5.722e-05  |            |       |  3.86

Nlocal:    100 ave 100 max 100 min
Histogram: 1 0 0 0 0 0 0 0 0 0
Nghost:    351 ave 351 max 351 min
Histogram: 1 0 0 0 0 0 0 0 0 0
Neighs:    1181 ave 1181 max 1181 min
Histogram: 1 0 0 0 0 0 0 0 0 0

Total # of neighbors = 1181
Ave neighs/atom = 11.81
Ave special neighs/atom = 1.98
Neighbor list builds = 0
Dangerous builds = 0
unfix 1
unfix 2

pair_style    lj/cut/soft 1.0 1.0 1.5
pair_coeff    1 2 0.2 1.0 0.5860000000000004
pair_style    lj/cut/soft 1.0 1.0 1.5
pair_coeff    1 1 0.2 1.0 0.5860000000000004
pair_style    lj/cut/soft 1.0 1.0 1.5
pair_coeff    2 2 0.5 1.0 0.5860000000000004
velocity        all scale 1.0
fix             1 all nve/limit 1.5
fix             2 all langevin 1.0 1.0 1 52690
thermo_style    custom step temp press pe ke
thermo          100
run             100
Per MPI rank memory allocation (min/avg/max) = 5.555 | 5.555 | 5.555 Mbytes
Step Temp Press PotEng KinEng 
  107300            1  0.021950203    20.550931        1.485 
  107400   0.99539263 -0.004742644    20.541508    1.4781581 
Loop time of 0.00145602 on 1 procs for 100 steps with 100 atoms

Performance: 29669876.011 tau/day, 68680.269 timesteps/s
99.7% CPU use with 1 MPI tasks x 1 OpenMP threads

MPI task timing breakdown:
Section |  min time  |  avg time  |  max time  |%varavg| %total
---------------------------------------------------------------
Pair    | 0.00049162 | 0.00049162 | 0.00049162 |   0.0 | 33.76
Bond    | 0.00017047 | 0.00017047 | 0.00017047 |   0.0 | 11.71
Neigh   | 0          | 0          | 0          |   0.0 |  0.00
Comm    | 0.00013566 | 0.00013566 | 0.00013566 |   0.0 |  9.32
Output  | 1.502e-05  | 1.502e-05  | 1.502e-05  |   0.0 |  1.03
Modify  | 0.00059128 | 0.00059128 | 0.00059128 |   0.0 | 40.61
Other   |            | 5.198e-05  |            |       |  3.57

Nlocal:    100 ave 100 max 100 min
Histogram: 1 0 0 0 0 0 0 0 0 0
Nghost:    346 ave 346 max 346 min
Histogram: 1 0 0 0 0 0 0 0 0 0
Neighs:    1174 ave 1174 max 1174 min
Histogram: 1 0 0 0 0 0 0 0 0 0

Total # of neighbors = 1174
Ave neighs/atom = 11.74
Ave special neighs/atom = 1.98
Neighbor list builds = 0
Dangerous builds = 0
unfix 1
unfix 2

pair_style    lj/cut/soft 1.0 1.0 1.5
pair_coeff    1 2 0.2 1.0 0.5950000000000004
pair_style    lj/cut/soft 1.0 1.0 1.5
pair_coeff    1 1 0.2 1.0 0.5950000000000004
pair_style    lj/cut/soft 1.0 1.0 1.5
pair_coeff    2 2 0.5 1.0 0.5950000000000004
velocity        all scale 1.0
fix             1 all nve/limit 1.5
fix             2 all langevin 1.0 1.0 1 52690
thermo_style    custom step temp press pe ke
thermo          100
run             100
Per MPI rank memory allocation (min/avg/max) = 5.555 | 5.555 | 5.555 Mbytes
Step Temp Press PotEng KinEng 
  107400            1 -0.0046128907    20.541455        1.485 
  107500   0.96306073 0.0087631132    20.527364    1.4301452 
Loop time of 0.00145411 on 1 procs for 100 steps with 100 atoms

Performance: 29708793.704 tau/day, 68770.356 timesteps/s
99.4% CPU use with 1 MPI tasks x 1 OpenMP threads

MPI task timing breakdown:
Section |  min time  |  avg time  |  max time  |%varavg| %total
---------------------------------------------------------------
Pair    | 0.00049806 | 0.00049806 | 0.00049806 |   0.0 | 34.25
Bond    | 0.00016999 | 0.00016999 | 0.00016999 |   0.0 | 11.69
Neigh   | 0          | 0          | 0          |   0.0 |  0.00
Comm    | 0.00013304 | 0.00013304 | 0.00013304 |   0.0 |  9.15
Output  | 1.0014e-05 | 1.0014e-05 | 1.0014e-05 |   0.0 |  0.69
Modify  | 0.00059032 | 0.00059032 | 0.00059032 |   0.0 | 40.60
Other   |            | 5.269e-05  |            |       |  3.62

Nlocal:    100 ave 100 max 100 min
Histogram: 1 0 0 0 0 0 0 0 0 0
Nghost:    346 ave 346 max 346 min
Histogram: 1 0 0 0 0 0 0 0 0 0
Neighs:    1165 ave 1165 max 1165 min
Histogram: 1 0 0 0 0 0 0 0 0 0

Total # of neighbors = 1165
Ave neighs/atom = 11.65
Ave special neighs/atom = 1.98
Neighbor list builds = 0
Dangerous builds = 0
unfix 1
unfix 2

pair_style    lj/cut/soft 1.0 1.0 1.5
pair_coeff    1 2 0.2 1.0 0.6040000000000004
pair_style    lj/cut/soft 1.0 1.0 1.5
pair_coeff    1 1 0.2 1.0 0.6040000000000004
pair_style    lj/cut/soft 1.0 1.0 1.5
pair_coeff    2 2 0.5 1.0 0.6040000000000004
velocity        all scale 1.0
fix             1 all nve/limit 1.5
fix             2 all langevin 1.0 1.0 1 52690
thermo_style    custom step temp press pe ke
thermo          100
run             100
Per MPI rank memory allocation (min/avg/max) = 5.555 | 5.555 | 5.555 Mbytes
Step Temp Press PotEng KinEng 
  107500            1 0.0092686943    20.526961        1.485 
  107600    1.0416158 -0.00037787435    20.428416    1.5467995 
Loop time of 0.00155282 on 1 procs for 100 steps with 100 atoms

Performance: 27820348.964 tau/day, 64398.956 timesteps/s
100.0% CPU use with 1 MPI tasks x 1 OpenMP threads

MPI task timing breakdown:
Section |  min time  |  avg time  |  max time  |%varavg| %total
---------------------------------------------------------------
Pair    | 0.00053525 | 0.00053525 | 0.00053525 |   0.0 | 34.47
Bond    | 0.00017381 | 0.00017381 | 0.00017381 |   0.0 | 11.19
Neigh   | 0          | 0          | 0          |   0.0 |  0.00
Comm    | 0.00014782 | 0.00014782 | 0.00014782 |   0.0 |  9.52
Output  | 5.9605e-06 | 5.9605e-06 | 5.9605e-06 |   0.0 |  0.38
Modify  | 0.00062871 | 0.00062871 | 0.00062871 |   0.0 | 40.49
Other   |            | 6.127e-05  |            |       |  3.95

Nlocal:    100 ave 100 max 100 min
Histogram: 1 0 0 0 0 0 0 0 0 0
Nghost:    347 ave 347 max 347 min
Histogram: 1 0 0 0 0 0 0 0 0 0
Neighs:    1146 ave 1146 max 1146 min
Histogram: 1 0 0 0 0 0 0 0 0 0

Total # of neighbors = 1146
Ave neighs/atom = 11.46
Ave special neighs/atom = 1.98
Neighbor list builds = 0
Dangerous builds = 0
unfix 1
unfix 2

pair_style    lj/cut/soft 1.0 1.0 1.5
pair_coeff    1 2 0.2 1.0 0.6130000000000004
pair_style    lj/cut/soft 1.0 1.0 1.5
pair_coeff    1 1 0.2 1.0 0.6130000000000004
pair_style    lj/cut/soft 1.0 1.0 1.5
pair_coeff    2 2 0.5 1.0 0.6130000000000004
velocity        all scale 1.0
fix             1 all nve/limit 1.5
fix             2 all langevin 1.0 1.0 1 52690
thermo_style    custom step temp press pe ke
thermo          100
run             100
Per MPI rank memory allocation (min/avg/max) = 5.555 | 5.555 | 5.555 Mbytes
Step Temp Press PotEng KinEng 
  107600            1 -0.00083253873    20.428263        1.485 
  107700    1.0700511 -0.0096753921    20.512623    1.5890258 
Loop time of 0.00145292 on 1 procs for 100 steps with 100 atoms

Performance: 29733169.150 tau/day, 68826.780 timesteps/s
99.5% CPU use with 1 MPI tasks x 1 OpenMP threads

MPI task timing breakdown:
Section |  min time  |  avg time  |  max time  |%varavg| %total
---------------------------------------------------------------
Pair    | 0.00047994 | 0.00047994 | 0.00047994 |   0.0 | 33.03
Bond    | 0.00018167 | 0.00018167 | 0.00018167 |   0.0 | 12.50
Neigh   | 0          | 0          | 0          |   0.0 |  0.00
Comm    | 0.00013494 | 0.00013494 | 0.00013494 |   0.0 |  9.29
Output  | 1.0967e-05 | 1.0967e-05 | 1.0967e-05 |   0.0 |  0.75
Modify  | 0.00059342 | 0.00059342 | 0.00059342 |   0.0 | 40.84
Other   |            | 5.198e-05  |            |       |  3.58

Nlocal:    100 ave 100 max 100 min
Histogram: 1 0 0 0 0 0 0 0 0 0
Nghost:    352 ave 352 max 352 min
Histogram: 1 0 0 0 0 0 0 0 0 0
Neighs:    1179 ave 1179 max 1179 min
Histogram: 1 0 0 0 0 0 0 0 0 0

Total # of neighbors = 1179
Ave neighs/atom = 11.79
Ave special neighs/atom = 1.98
Neighbor list builds = 0
Dangerous builds = 0
unfix 1
unfix 2

pair_style    lj/cut/soft 1.0 1.0 1.5
pair_coeff    1 2 0.2 1.0 0.6220000000000004
pair_style    lj/cut/soft 1.0 1.0 1.5
pair_coeff    1 1 0.2 1.0 0.6220000000000004
pair_style    lj/cut/soft 1.0 1.0 1.5
pair_coeff    2 2 0.5 1.0 0.6220000000000004
velocity        all scale 1.0
fix             1 all nve/limit 1.5
fix             2 all langevin 1.0 1.0 1 52690
thermo_style    custom step temp press pe ke
thermo          100
run             100
Per MPI rank memory allocation (min/avg/max) = 5.555 | 5.555 | 5.555 Mbytes
Step Temp Press PotEng KinEng 
  107700            1 -0.010525908    20.511972        1.485 
  107800    1.1122059 -0.0059292796     20.42291    1.6516257 
Loop time of 0.00146389 on 1 procs for 100 steps with 100 atoms

Performance: 29510412.508 tau/day, 68311.140 timesteps/s
99.8% CPU use with 1 MPI tasks x 1 OpenMP threads

MPI task timing breakdown:
Section |  min time  |  avg time  |  max time  |%varavg| %total
---------------------------------------------------------------
Pair    | 0.00048351 | 0.00048351 | 0.00048351 |   0.0 | 33.03
Bond    | 0.00018668 | 0.00018668 | 0.00018668 |   0.0 | 12.75
Neigh   | 0          | 0          | 0          |   0.0 |  0.00
Comm    | 0.00014424 | 0.00014424 | 0.00014424 |   0.0 |  9.85
Output  | 5.9605e-06 | 5.9605e-06 | 5.9605e-06 |   0.0 |  0.41
Modify  | 0.00059366 | 0.00059366 | 0.00059366 |   0.0 | 40.55
Other   |            | 4.983e-05  |            |       |  3.40

Nlocal:    100 ave 100 max 100 min
Histogram: 1 0 0 0 0 0 0 0 0 0
Nghost:    343 ave 343 max 343 min
Histogram: 1 0 0 0 0 0 0 0 0 0
Neighs:    1192 ave 1192 max 1192 min
Histogram: 1 0 0 0 0 0 0 0 0 0

Total # of neighbors = 1192
Ave neighs/atom = 11.92
Ave special neighs/atom = 1.98
Neighbor list builds = 0
Dangerous builds = 0
unfix 1
unfix 2

pair_style    lj/cut/soft 1.0 1.0 1.5
pair_coeff    1 2 0.2 1.0 0.6310000000000004
pair_style    lj/cut/soft 1.0 1.0 1.5
pair_coeff    1 1 0.2 1.0 0.6310000000000004
pair_style    lj/cut/soft 1.0 1.0 1.5
pair_coeff    2 2 0.5 1.0 0.6310000000000004
velocity        all scale 1.0
fix             1 all nve/limit 1.5
fix             2 all langevin 1.0 1.0 1 52690
thermo_style    custom step temp press pe ke
thermo          100
run             100
Per MPI rank memory allocation (min/avg/max) = 5.555 | 5.555 | 5.555 Mbytes
Step Temp Press PotEng KinEng 
  107800            1 -0.0071309057    20.425709        1.485 
  107900    1.0337921  0.016272437    20.379246    1.5351812 
Loop time of 0.001436 on 1 procs for 100 steps with 100 atoms

Performance: 30083668.072 tau/day, 69638.121 timesteps/s
99.8% CPU use with 1 MPI tasks x 1 OpenMP threads

MPI task timing breakdown:
Section |  min time  |  avg time  |  max time  |%varavg| %total
---------------------------------------------------------------
Pair    | 0.00049853 | 0.00049853 | 0.00049853 |   0.0 | 34.72
Bond    | 0.0001626  | 0.0001626  | 0.0001626  |   0.0 | 11.32
Neigh   | 0          | 0          | 0          |   0.0 |  0.00
Comm    | 0.00012469 | 0.00012469 | 0.00012469 |   0.0 |  8.68
Output  | 6.9141e-06 | 6.9141e-06 | 6.9141e-06 |   0.0 |  0.48
Modify  | 0.00059676 | 0.00059676 | 0.00059676 |   0.0 | 41.56
Other   |            | 4.649e-05  |            |       |  3.24

Nlocal:    100 ave 100 max 100 min
Histogram: 1 0 0 0 0 0 0 0 0 0
Nghost:    327 ave 327 max 327 min
Histogram: 1 0 0 0 0 0 0 0 0 0
Neighs:    1202 ave 1202 max 1202 min
Histogram: 1 0 0 0 0 0 0 0 0 0

Total # of neighbors = 1202
Ave neighs/atom = 12.02
Ave special neighs/atom = 1.98
Neighbor list builds = 0
Dangerous builds = 0
unfix 1
unfix 2

pair_style    lj/cut/soft 1.0 1.0 1.5
pair_coeff    1 2 0.2 1.0 0.6400000000000005
pair_style    lj/cut/soft 1.0 1.0 1.5
pair_coeff    1 1 0.2 1.0 0.6400000000000005
pair_style    lj/cut/soft 1.0 1.0 1.5
pair_coeff    2 2 0.5 1.0 0.6400000000000005
velocity        all scale 1.0
fix             1 all nve/limit 1.5
fix             2 all langevin 1.0 1.0 1 52690
thermo_style    custom step temp press pe ke
thermo          100
run             100
Per MPI rank memory allocation (min/avg/max) = 5.555 | 5.555 | 5.555 Mbytes
Step Temp Press PotEng KinEng 
  107900            1  0.015919726    20.379028        1.485 
  108000    1.0661242 -0.016626094    20.507196    1.5831944 
Loop time of 0.0014441 on 1 procs for 100 steps with 100 atoms

Performance: 29914798.217 tau/day, 69247.218 timesteps/s
99.5% CPU use with 1 MPI tasks x 1 OpenMP threads

MPI task timing breakdown:
Section |  min time  |  avg time  |  max time  |%varavg| %total
---------------------------------------------------------------
Pair    | 0.00048494 | 0.00048494 | 0.00048494 |   0.0 | 33.58
Bond    | 0.00017691 | 0.00017691 | 0.00017691 |   0.0 | 12.25
Neigh   | 0          | 0          | 0          |   0.0 |  0.00
Comm    | 0.00012517 | 0.00012517 | 0.00012517 |   0.0 |  8.67
Output  | 1.1921e-05 | 1.1921e-05 | 1.1921e-05 |   0.0 |  0.83
Modify  | 0.00058937 | 0.00058937 | 0.00058937 |   0.0 | 40.81
Other   |            | 5.579e-05  |            |       |  3.86

Nlocal:    100 ave 100 max 100 min
Histogram: 1 0 0 0 0 0 0 0 0 0
Nghost:    328 ave 328 max 328 min
Histogram: 1 0 0 0 0 0 0 0 0 0
Neighs:    1195 ave 1195 max 1195 min
Histogram: 1 0 0 0 0 0 0 0 0 0

Total # of neighbors = 1195
Ave neighs/atom = 11.95
Ave special neighs/atom = 1.98
Neighbor list builds = 0
Dangerous builds = 0
unfix 1
unfix 2

pair_style    lj/cut/soft 1.0 1.0 1.5
pair_coeff    1 2 0.2 1.0 0.6490000000000005
pair_style    lj/cut/soft 1.0 1.0 1.5
pair_coeff    1 1 0.2 1.0 0.6490000000000005
pair_style    lj/cut/soft 1.0 1.0 1.5
pair_coeff    2 2 0.5 1.0 0.6490000000000005
velocity        all scale 1.0
fix             1 all nve/limit 1.5
fix             2 all langevin 1.0 1.0 1 52690
thermo_style    custom step temp press pe ke
thermo          100
run             100
Per MPI rank memory allocation (min/avg/max) = 5.555 | 5.555 | 5.555 Mbytes
Step Temp Press PotEng KinEng 
  108000            1 -0.017294897    20.508508        1.485 
  108100    1.1542537 -0.020225678    20.415442    1.7140667 
Loop time of 0.0015111 on 1 procs for 100 steps with 100 atoms

Performance: 28588503.124 tau/day, 66177.091 timesteps/s
99.9% CPU use with 1 MPI tasks x 1 OpenMP threads

MPI task timing breakdown:
Section |  min time  |  avg time  |  max time  |%varavg| %total
---------------------------------------------------------------
Pair    | 0.00050783 | 0.00050783 | 0.00050783 |   0.0 | 33.61
Bond    | 0.00017333 | 0.00017333 | 0.00017333 |   0.0 | 11.47
Neigh   | 0          | 0          | 0          |   0.0 |  0.00
Comm    | 0.00015092 | 0.00015092 | 0.00015092 |   0.0 |  9.99
Output  | 5.9605e-06 | 5.9605e-06 | 5.9605e-06 |   0.0 |  0.39
Modify  | 0.00061703 | 0.00061703 | 0.00061703 |   0.0 | 40.83
Other   |            | 5.603e-05  |            |       |  3.71

Nlocal:    100 ave 100 max 100 min
Histogram: 1 0 0 0 0 0 0 0 0 0
Nghost:    333 ave 333 max 333 min
Histogram: 1 0 0 0 0 0 0 0 0 0
Neighs:    1178 ave 1178 max 1178 min
Histogram: 1 0 0 0 0 0 0 0 0 0

Total # of neighbors = 1178
Ave neighs/atom = 11.78
Ave special neighs/atom = 1.98
Neighbor list builds = 0
Dangerous builds = 0
unfix 1
unfix 2

pair_style    lj/cut/soft 1.0 1.0 1.5
pair_coeff    1 2 0.2 1.0 0.6580000000000005
pair_style    lj/cut/soft 1.0 1.0 1.5
pair_coeff    1 1 0.2 1.0 0.6580000000000005
pair_style    lj/cut/soft 1.0 1.0 1.5
pair_coeff    2 2 0.5 1.0 0.6580000000000005
velocity        all scale 1.0
fix             1 all nve/limit 1.5
fix             2 all langevin 1.0 1.0 1 52690
thermo_style    custom step temp press pe ke
thermo          100
run             100
Per MPI rank memory allocation (min/avg/max) = 5.555 | 5.555 | 5.555 Mbytes
Step Temp Press PotEng KinEng 
  108100            1 -0.022088219     20.41523        1.485 
  108200    1.0056717 -0.0095832568     20.52087    1.4934225 
Loop time of 0.0014081 on 1 procs for 100 steps with 100 atoms

Performance: 30679636.438 tau/day, 71017.677 timesteps/s
99.8% CPU use with 1 MPI tasks x 1 OpenMP threads

MPI task timing breakdown:
Section |  min time  |  avg time  |  max time  |%varavg| %total
---------------------------------------------------------------
Pair    | 0.00046968 | 0.00046968 | 0.00046968 |   0.0 | 33.36
Bond    | 0.00016785 | 0.00016785 | 0.00016785 |   0.0 | 11.92
Neigh   | 0          | 0          | 0          |   0.0 |  0.00
Comm    | 0.00012136 | 0.00012136 | 0.00012136 |   0.0 |  8.62
Output  | 6.9141e-06 | 6.9141e-06 | 6.9141e-06 |   0.0 |  0.49
Modify  | 0.0006001  | 0.0006001  | 0.0006001  |   0.0 | 42.62
Other   |            | 4.22e-05   |            |       |  3.00

Nlocal:    100 ave 100 max 100 min
Histogram: 1 0 0 0 0 0 0 0 0 0
Nghost:    321 ave 321 max 321 min
Histogram: 1 0 0 0 0 0 0 0 0 0
Neighs:    1142 ave 1142 max 1142 min
Histogram: 1 0 0 0 0 0 0 0 0 0

Total # of neighbors = 1142
Ave neighs/atom = 11.42
Ave special neighs/atom = 1.98
Neighbor list builds = 0
Dangerous builds = 0
unfix 1
unfix 2

pair_style    lj/cut/soft 1.0 1.0 1.5
pair_coeff    1 2 0.2 1.0 0.6670000000000005
pair_style    lj/cut/soft 1.0 1.0 1.5
pair_coeff    1 1 0.2 1.0 0.6670000000000005
pair_style    lj/cut/soft 1.0 1.0 1.5
pair_coeff    2 2 0.5 1.0 0.6670000000000005
velocity        all scale 1.0
fix             1 all nve/limit 1.5
fix             2 all langevin 1.0 1.0 1 52690
thermo_style    custom step temp press pe ke
thermo          100
run             100
Per MPI rank memory allocation (min/avg/max) = 5.555 | 5.555 | 5.555 Mbytes
Step Temp Press PotEng KinEng 
  108200            1 -0.0095810702    20.520849        1.485 
  108300    1.0648372 4.3483772e-05    20.506151    1.5812832 
Loop time of 0.00161099 on 1 procs for 100 steps with 100 atoms

Performance: 26815736.688 tau/day, 62073.465 timesteps/s
39.9% CPU use with 1 MPI tasks x 1 OpenMP threads

MPI task timing breakdown:
Section |  min time  |  avg time  |  max time  |%varavg| %total
---------------------------------------------------------------
Pair    | 0.00051808 | 0.00051808 | 0.00051808 |   0.0 | 32.16
Bond    | 0.00019002 | 0.00019002 | 0.00019002 |   0.0 | 11.80
Neigh   | 0          | 0          | 0          |   0.0 |  0.00
Comm    | 0.00013876 | 0.00013876 | 0.00013876 |   0.0 |  8.61
Output  | 1.2159e-05 | 1.2159e-05 | 1.2159e-05 |   0.0 |  0.75
Modify  | 0.00069261 | 0.00069261 | 0.00069261 |   0.0 | 42.99
Other   |            | 5.937e-05  |            |       |  3.69

Nlocal:    100 ave 100 max 100 min
Histogram: 1 0 0 0 0 0 0 0 0 0
Nghost:    322 ave 322 max 322 min
Histogram: 1 0 0 0 0 0 0 0 0 0
Neighs:    1104 ave 1104 max 1104 min
Histogram: 1 0 0 0 0 0 0 0 0 0

Total # of neighbors = 1104
Ave neighs/atom = 11.04
Ave special neighs/atom = 1.98
Neighbor list builds = 0
Dangerous builds = 0
unfix 1
unfix 2

pair_style    lj/cut/soft 1.0 1.0 1.5
pair_coeff    1 2 0.2 1.0 0.6760000000000005
pair_style    lj/cut/soft 1.0 1.0 1.5
pair_coeff    1 1 0.2 1.0 0.6760000000000005
pair_style    lj/cut/soft 1.0 1.0 1.5
pair_coeff    2 2 0.5 1.0 0.6760000000000005
velocity        all scale 1.0
fix             1 all nve/limit 1.5
fix             2 all langevin 1.0 1.0 1 52690
thermo_style    custom step temp press pe ke
thermo          100
run             100
Per MPI rank memory allocation (min/avg/max) = 5.555 | 5.555 | 5.555 Mbytes
Step Temp Press PotEng KinEng 
  108300            1 -0.00075111532    20.505474        1.485 
  108400    1.0180363 -0.028547802    20.589135     1.511784 
Loop time of 0.00153279 on 1 procs for 100 steps with 100 atoms

Performance: 28183843.957 tau/day, 65240.380 timesteps/s
99.6% CPU use with 1 MPI tasks x 1 OpenMP threads

MPI task timing breakdown:
Section |  min time  |  avg time  |  max time  |%varavg| %total
---------------------------------------------------------------
Pair    | 0.00045037 | 0.00045037 | 0.00045037 |   0.0 | 29.38
Bond    | 0.00024223 | 0.00024223 | 0.00024223 |   0.0 | 15.80
Neigh   | 0          | 0          | 0          |   0.0 |  0.00
Comm    | 0.00012684 | 0.00012684 | 0.00012684 |   0.0 |  8.28
Output  | 2.0027e-05 | 2.0027e-05 | 2.0027e-05 |   0.0 |  1.31
Modify  | 0.00063276 | 0.00063276 | 0.00063276 |   0.0 | 41.28
Other   |            | 6.056e-05  |            |       |  3.95

Nlocal:    100 ave 100 max 100 min
Histogram: 1 0 0 0 0 0 0 0 0 0
Nghost:    320 ave 320 max 320 min
Histogram: 1 0 0 0 0 0 0 0 0 0
Neighs:    1090 ave 1090 max 1090 min
Histogram: 1 0 0 0 0 0 0 0 0 0

Total # of neighbors = 1090
Ave neighs/atom = 10.9
Ave special neighs/atom = 1.98
Neighbor list builds = 0
Dangerous builds = 0
unfix 1
unfix 2

pair_style    lj/cut/soft 1.0 1.0 1.5
pair_coeff    1 2 0.2 1.0 0.6850000000000005
pair_style    lj/cut/soft 1.0 1.0 1.5
pair_coeff    1 1 0.2 1.0 0.6850000000000005
pair_style    lj/cut/soft 1.0 1.0 1.5
pair_coeff    2 2 0.5 1.0 0.6850000000000005
velocity        all scale 1.0
fix             1 all nve/limit 1.5
fix             2 all langevin 1.0 1.0 1 52690
thermo_style    custom step temp press pe ke
thermo          100
run             100
Per MPI rank memory allocation (min/avg/max) = 5.555 | 5.555 | 5.555 Mbytes
Step Temp Press PotEng KinEng 
  108400            1 -0.028726061    20.588895        1.485 
  108500    1.0464839 -0.012178046    20.554126    1.5540285 
Loop time of 0.00146103 on 1 procs for 100 steps with 100 atoms

Performance: 29568200.522 tau/day, 68444.909 timesteps/s
99.8% CPU use with 1 MPI tasks x 1 OpenMP threads

MPI task timing breakdown:
Section |  min time  |  avg time  |  max time  |%varavg| %total
---------------------------------------------------------------
Pair    | 0.00045562 | 0.00045562 | 0.00045562 |   0.0 | 31.18
Bond    | 0.0001812  | 0.0001812  | 0.0001812  |   0.0 | 12.40
Neigh   | 0          | 0          | 0          |   0.0 |  0.00
Comm    | 0.00013018 | 0.00013018 | 0.00013018 |   0.0 |  8.91
Output  | 7.8678e-06 | 7.8678e-06 | 7.8678e-06 |   0.0 |  0.54
Modify  | 0.00062966 | 0.00062966 | 0.00062966 |   0.0 | 43.10
Other   |            | 5.651e-05  |            |       |  3.87

Nlocal:    100 ave 100 max 100 min
Histogram: 1 0 0 0 0 0 0 0 0 0
Nghost:    319 ave 319 max 319 min
Histogram: 1 0 0 0 0 0 0 0 0 0
Neighs:    1052 ave 1052 max 1052 min
Histogram: 1 0 0 0 0 0 0 0 0 0

Total # of neighbors = 1052
Ave neighs/atom = 10.52
Ave special neighs/atom = 1.98
Neighbor list builds = 0
Dangerous builds = 0
unfix 1
unfix 2

pair_style    lj/cut/soft 1.0 1.0 1.5
pair_coeff    1 2 0.2 1.0 0.6940000000000005
pair_style    lj/cut/soft 1.0 1.0 1.5
pair_coeff    1 1 0.2 1.0 0.6940000000000005
pair_style    lj/cut/soft 1.0 1.0 1.5
pair_coeff    2 2 0.5 1.0 0.6940000000000005
velocity        all scale 1.0
fix             1 all nve/limit 1.5
fix             2 all langevin 1.0 1.0 1 52690
thermo_style    custom step temp press pe ke
thermo          100
run             100
Per MPI rank memory allocation (min/avg/max) = 5.555 | 5.555 | 5.555 Mbytes
Step Temp Press PotEng KinEng 
  108500            1 -0.012759262    20.553277        1.485 
  108600   0.97304171 -0.011308694    20.574819    1.4449669 
Loop time of 0.00153399 on 1 procs for 100 steps with 100 atoms

Performance: 28161941.685 tau/day, 65189.680 timesteps/s
99.9% CPU use with 1 MPI tasks x 1 OpenMP threads

MPI task timing breakdown:
Section |  min time  |  avg time  |  max time  |%varavg| %total
---------------------------------------------------------------
Pair    | 0.00046349 | 0.00046349 | 0.00046349 |   0.0 | 30.21
Bond    | 0.00019574 | 0.00019574 | 0.00019574 |   0.0 | 12.76
Neigh   | 0          | 0          | 0          |   0.0 |  0.00
Comm    | 0.00012302 | 0.00012302 | 0.00012302 |   0.0 |  8.02
Output  | 7.8678e-06 | 7.8678e-06 | 7.8678e-06 |   0.0 |  0.51
Modify  | 0.00067925 | 0.00067925 | 0.00067925 |   0.0 | 44.28
Other   |            | 6.461e-05  |            |       |  4.21

Nlocal:    100 ave 100 max 100 min
Histogram: 1 0 0 0 0 0 0 0 0 0
Nghost:    317 ave 317 max 317 min
Histogram: 1 0 0 0 0 0 0 0 0 0
Neighs:    1023 ave 1023 max 1023 min
Histogram: 1 0 0 0 0 0 0 0 0 0

Total # of neighbors = 1023
Ave neighs/atom = 10.23
Ave special neighs/atom = 1.98
Neighbor list builds = 0
Dangerous builds = 0
unfix 1
unfix 2

pair_style    lj/cut/soft 1.0 1.0 1.5
pair_coeff    1 2 0.2 1.0 0.7030000000000005
pair_style    lj/cut/soft 1.0 1.0 1.5
pair_coeff    1 1 0.2 1.0 0.7030000000000005
pair_style    lj/cut/soft 1.0 1.0 1.5
pair_coeff    2 2 0.5 1.0 0.7030000000000005
velocity        all scale 1.0
fix             1 all nve/limit 1.5
fix             2 all langevin 1.0 1.0 1 52690
thermo_style    custom step temp press pe ke
thermo          100
run             100
Per MPI rank memory allocation (min/avg/max) = 5.555 | 5.555 | 5.555 Mbytes
Step Temp Press PotEng KinEng 
  108600            1 -0.010908077    20.574832        1.485 
  108700    1.0315813 -0.017778863    20.540273    1.5318982 
Loop time of 0.001441 on 1 procs for 100 steps with 100 atoms

Performance: 29979141.760 tau/day, 69396.161 timesteps/s
99.8% CPU use with 1 MPI tasks x 1 OpenMP threads

MPI task timing breakdown:
Section |  min time  |  avg time  |  max time  |%varavg| %total
---------------------------------------------------------------
Pair    | 0.00044346 | 0.00044346 | 0.00044346 |   0.0 | 30.77
Bond    | 0.00018239 | 0.00018239 | 0.00018239 |   0.0 | 12.66
Neigh   | 0          | 0          | 0          |   0.0 |  0.00
Comm    | 0.00013351 | 0.00013351 | 0.00013351 |   0.0 |  9.27
Output  | 5.9605e-06 | 5.9605e-06 | 5.9605e-06 |   0.0 |  0.41
Modify  | 0.00062585 | 0.00062585 | 0.00062585 |   0.0 | 43.43
Other   |            | 4.983e-05  |            |       |  3.46

Nlocal:    100 ave 100 max 100 min
Histogram: 1 0 0 0 0 0 0 0 0 0
Nghost:    329 ave 329 max 329 min
Histogram: 1 0 0 0 0 0 0 0 0 0
Neighs:    1039 ave 1039 max 1039 min
Histogram: 1 0 0 0 0 0 0 0 0 0

Total # of neighbors = 1039
Ave neighs/atom = 10.39
Ave special neighs/atom = 1.98
Neighbor list builds = 0
Dangerous builds = 0
unfix 1
unfix 2

pair_style    lj/cut/soft 1.0 1.0 1.5
pair_coeff    1 2 0.2 1.0 0.7120000000000005
pair_style    lj/cut/soft 1.0 1.0 1.5
pair_coeff    1 1 0.2 1.0 0.7120000000000005
pair_style    lj/cut/soft 1.0 1.0 1.5
pair_coeff    2 2 0.5 1.0 0.7120000000000005
velocity        all scale 1.0
fix             1 all nve/limit 1.5
fix             2 all langevin 1.0 1.0 1 52690
thermo_style    custom step temp press pe ke
thermo          100
run             100
Per MPI rank memory allocation (min/avg/max) = 5.555 | 5.555 | 5.555 Mbytes
Step Temp Press PotEng KinEng 
  108700            1 -0.017953111    20.544109        1.485 
  108800   0.99301208 0.0014125643    20.653481    1.4746229 
Loop time of 0.00148487 on 1 procs for 100 steps with 100 atoms

Performance: 29093438.150 tau/day, 67345.922 timesteps/s
65.6% CPU use with 1 MPI tasks x 1 OpenMP threads

MPI task timing breakdown:
Section |  min time  |  avg time  |  max time  |%varavg| %total
---------------------------------------------------------------
Pair    | 0.00045276 | 0.00045276 | 0.00045276 |   0.0 | 30.49
Bond    | 0.0001843  | 0.0001843  | 0.0001843  |   0.0 | 12.41
Neigh   | 0          | 0          | 0          |   0.0 |  0.00
Comm    | 0.00012612 | 0.00012612 | 0.00012612 |   0.0 |  8.49
Output  | 1.0967e-05 | 1.0967e-05 | 1.0967e-05 |   0.0 |  0.74
Modify  | 0.00065756 | 0.00065756 | 0.00065756 |   0.0 | 44.28
Other   |            | 5.317e-05  |            |       |  3.58

Nlocal:    100 ave 100 max 100 min
Histogram: 1 0 0 0 0 0 0 0 0 0
Nghost:    331 ave 331 max 331 min
Histogram: 1 0 0 0 0 0 0 0 0 0
Neighs:    1072 ave 1072 max 1072 min
Histogram: 1 0 0 0 0 0 0 0 0 0

Total # of neighbors = 1072
Ave neighs/atom = 10.72
Ave special neighs/atom = 1.98
Neighbor list builds = 0
Dangerous builds = 0
unfix 1
unfix 2

pair_style    lj/cut/soft 1.0 1.0 1.5
pair_coeff    1 2 0.2 1.0 0.7210000000000005
pair_style    lj/cut/soft 1.0 1.0 1.5
pair_coeff    1 1 0.2 1.0 0.7210000000000005
pair_style    lj/cut/soft 1.0 1.0 1.5
pair_coeff    2 2 0.5 1.0 0.7210000000000005
velocity        all scale 1.0
fix             1 all nve/limit 1.5
fix             2 all langevin 1.0 1.0 1 52690
thermo_style    custom step temp press pe ke
thermo          100
run             100
Per MPI rank memory allocation (min/avg/max) = 5.555 | 5.555 | 5.555 Mbytes
Step Temp Press PotEng KinEng 
  108800            1 0.0016261294    20.654302        1.485 
  108900    1.1769038 0.00038004705    20.592393    1.7477022 
Loop time of 0.00140691 on 1 procs for 100 steps with 100 atoms

Performance: 30705631.723 tau/day, 71077.851 timesteps/s
99.8% CPU use with 1 MPI tasks x 1 OpenMP threads

MPI task timing breakdown:
Section |  min time  |  avg time  |  max time  |%varavg| %total
---------------------------------------------------------------
Pair    | 0.00044513 | 0.00044513 | 0.00044513 |   0.0 | 31.64
Bond    | 0.00016475 | 0.00016475 | 0.00016475 |   0.0 | 11.71
Neigh   | 0          | 0          | 0          |   0.0 |  0.00
Comm    | 0.00013208 | 0.00013208 | 0.00013208 |   0.0 |  9.39
Output  | 5.9605e-06 | 5.9605e-06 | 5.9605e-06 |   0.0 |  0.42
Modify  | 0.00061107 | 0.00061107 | 0.00061107 |   0.0 | 43.43
Other   |            | 4.792e-05  |            |       |  3.41

Nlocal:    100 ave 100 max 100 min
Histogram: 1 0 0 0 0 0 0 0 0 0
Nghost:    338 ave 338 max 338 min
Histogram: 1 0 0 0 0 0 0 0 0 0
Neighs:    1090 ave 1090 max 1090 min
Histogram: 1 0 0 0 0 0 0 0 0 0

Total # of neighbors = 1090
Ave neighs/atom = 10.9
Ave special neighs/atom = 1.98
Neighbor list builds = 0
Dangerous builds = 0
unfix 1
unfix 2

pair_style    lj/cut/soft 1.0 1.0 1.5
pair_coeff    1 2 0.2 1.0 0.7300000000000005
pair_style    lj/cut/soft 1.0 1.0 1.5
pair_coeff    1 1 0.2 1.0 0.7300000000000005
pair_style    lj/cut/soft 1.0 1.0 1.5
pair_coeff    2 2 0.5 1.0 0.7300000000000005
velocity        all scale 1.0
fix             1 all nve/limit 1.5
fix             2 all langevin 1.0 1.0 1 52690
thermo_style    custom step temp press pe ke
thermo          100
run             100
Per MPI rank memory allocation (min/avg/max) = 5.555 | 5.555 | 5.555 Mbytes
Step Temp Press PotEng KinEng 
  108900            1 -0.0016630578    20.593438        1.485 
  109000    1.0389163 -0.021017396     20.60772    1.5427908 
Loop time of 0.00138903 on 1 procs for 100 steps with 100 atoms

Performance: 31100915.345 tau/day, 71992.860 timesteps/s
99.8% CPU use with 1 MPI tasks x 1 OpenMP threads

MPI task timing breakdown:
Section |  min time  |  avg time  |  max time  |%varavg| %total
---------------------------------------------------------------
Pair    | 0.00043869 | 0.00043869 | 0.00043869 |   0.0 | 31.58
Bond    | 0.00017023 | 0.00017023 | 0.00017023 |   0.0 | 12.26
Neigh   | 0          | 0          | 0          |   0.0 |  0.00
Comm    | 0.00013471 | 0.00013471 | 0.00013471 |   0.0 |  9.70
Output  | 5.9605e-06 | 5.9605e-06 | 5.9605e-06 |   0.0 |  0.43
Modify  | 0.00058913 | 0.00058913 | 0.00058913 |   0.0 | 42.41
Other   |            | 5.031e-05  |            |       |  3.62

Nlocal:    100 ave 100 max 100 min
Histogram: 1 0 0 0 0 0 0 0 0 0
Nghost:    333 ave 333 max 333 min
Histogram: 1 0 0 0 0 0 0 0 0 0
Neighs:    1070 ave 1070 max 1070 min
Histogram: 1 0 0 0 0 0 0 0 0 0

Total # of neighbors = 1070
Ave neighs/atom = 10.7
Ave special neighs/atom = 1.98
Neighbor list builds = 0
Dangerous builds = 0
unfix 1
unfix 2

pair_style    lj/cut/soft 1.0 1.0 1.5
pair_coeff    1 2 0.2 1.0 0.7390000000000005
pair_style    lj/cut/soft 1.0 1.0 1.5
pair_coeff    1 1 0.2 1.0 0.7390000000000005
pair_style    lj/cut/soft 1.0 1.0 1.5
pair_coeff    2 2 0.5 1.0 0.7390000000000005
velocity        all scale 1.0
fix             1 all nve/limit 1.5
fix             2 all langevin 1.0 1.0 1 52690
thermo_style    custom step temp press pe ke
thermo          100
run             100
Per MPI rank memory allocation (min/avg/max) = 5.555 | 5.555 | 5.555 Mbytes
Step Temp Press PotEng KinEng 
  109000            1 -0.021293402    20.609687        1.485 
  109100    1.0655082 0.0088661994    20.480599    1.5822797 
Loop time of 0.00141978 on 1 procs for 100 steps with 100 atoms

Performance: 30427192.746 tau/day, 70433.317 timesteps/s
99.8% CPU use with 1 MPI tasks x 1 OpenMP threads

MPI task timing breakdown:
Section |  min time  |  avg time  |  max time  |%varavg| %total
---------------------------------------------------------------
Pair    | 0.00044703 | 0.00044703 | 0.00044703 |   0.0 | 31.49
Bond    | 0.00018525 | 0.00018525 | 0.00018525 |   0.0 | 13.05
Neigh   | 0          | 0          | 0          |   0.0 |  0.00
Comm    | 0.0001235  | 0.0001235  | 0.0001235  |   0.0 |  8.70
Output  | 6.9141e-06 | 6.9141e-06 | 6.9141e-06 |   0.0 |  0.49
Modify  | 0.00060368 | 0.00060368 | 0.00060368 |   0.0 | 42.52
Other   |            | 5.341e-05  |            |       |  3.76

Nlocal:    100 ave 100 max 100 min
Histogram: 1 0 0 0 0 0 0 0 0 0
Nghost:    333 ave 333 max 333 min
Histogram: 1 0 0 0 0 0 0 0 0 0
Neighs:    1069 ave 1069 max 1069 min
Histogram: 1 0 0 0 0 0 0 0 0 0

Total # of neighbors = 1069
Ave neighs/atom = 10.69
Ave special neighs/atom = 1.98
Neighbor list builds = 0
Dangerous builds = 0
unfix 1
unfix 2

pair_style    lj/cut/soft 1.0 1.0 1.5
pair_coeff    1 2 0.2 1.0 0.7480000000000006
pair_style    lj/cut/soft 1.0 1.0 1.5
pair_coeff    1 1 0.2 1.0 0.7480000000000006
pair_style    lj/cut/soft 1.0 1.0 1.5
pair_coeff    2 2 0.5 1.0 0.7480000000000006
velocity        all scale 1.0
fix             1 all nve/limit 1.5
fix             2 all langevin 1.0 1.0 1 52690
thermo_style    custom step temp press pe ke
thermo          100
run             100
Per MPI rank memory allocation (min/avg/max) = 5.555 | 5.555 | 5.555 Mbytes
Step Temp Press PotEng KinEng 
  109100            1 0.0080880874    20.479792        1.485 
  109200    1.1489344 -0.016005361    20.464019    1.7061676 
Loop time of 0.00157714 on 1 procs for 100 steps with 100 atoms

Performance: 27391373.061 tau/day, 63405.956 timesteps/s
99.5% CPU use with 1 MPI tasks x 1 OpenMP threads

MPI task timing breakdown:
Section |  min time  |  avg time  |  max time  |%varavg| %total
---------------------------------------------------------------
Pair    | 0.0004952  | 0.0004952  | 0.0004952  |   0.0 | 31.40
Bond    | 0.00017715 | 0.00017715 | 0.00017715 |   0.0 | 11.23
Neigh   | 0          | 0          | 0          |   0.0 |  0.00
Comm    | 0.00013828 | 0.00013828 | 0.00013828 |   0.0 |  8.77
Output  | 1.7881e-05 | 1.7881e-05 | 1.7881e-05 |   0.0 |  1.13
Modify  | 0.00069904 | 0.00069904 | 0.00069904 |   0.0 | 44.32
Other   |            | 4.959e-05  |            |       |  3.14

Nlocal:    100 ave 100 max 100 min
Histogram: 1 0 0 0 0 0 0 0 0 0
Nghost:    328 ave 328 max 328 min
Histogram: 1 0 0 0 0 0 0 0 0 0
Neighs:    1066 ave 1066 max 1066 min
Histogram: 1 0 0 0 0 0 0 0 0 0

Total # of neighbors = 1066
Ave neighs/atom = 10.66
Ave special neighs/atom = 1.98
Neighbor list builds = 0
Dangerous builds = 0
unfix 1
unfix 2

pair_style    lj/cut/soft 1.0 1.0 1.5
pair_coeff    1 2 0.2 1.0 0.7570000000000006
pair_style    lj/cut/soft 1.0 1.0 1.5
pair_coeff    1 1 0.2 1.0 0.7570000000000006
pair_style    lj/cut/soft 1.0 1.0 1.5
pair_coeff    2 2 0.5 1.0 0.7570000000000006
velocity        all scale 1.0
fix             1 all nve/limit 1.5
fix             2 all langevin 1.0 1.0 1 52690
thermo_style    custom step temp press pe ke
thermo          100
run             100
Per MPI rank memory allocation (min/avg/max) = 5.555 | 5.555 | 5.555 Mbytes
Step Temp Press PotEng KinEng 
  109200            1 -0.017803397    20.463327        1.485 
  109300    1.2084579 -0.0067254566    20.537301    1.7945599 
Loop time of 0.00143313 on 1 procs for 100 steps with 100 atoms

Performance: 30143725.304 tau/day, 69777.142 timesteps/s
31.1% CPU use with 1 MPI tasks x 1 OpenMP threads

MPI task timing breakdown:
Section |  min time  |  avg time  |  max time  |%varavg| %total
---------------------------------------------------------------
Pair    | 0.00049782 | 0.00049782 | 0.00049782 |   0.0 | 34.74
Bond    | 0.00016594 | 0.00016594 | 0.00016594 |   0.0 | 11.58
Neigh   | 0          | 0          | 0          |   0.0 |  0.00
Comm    | 0.00013375 | 0.00013375 | 0.00013375 |   0.0 |  9.33
Output  | 1.0014e-05 | 1.0014e-05 | 1.0014e-05 |   0.0 |  0.70
Modify  | 0.00059009 | 0.00059009 | 0.00059009 |   0.0 | 41.17
Other   |            | 3.552e-05  |            |       |  2.48

Nlocal:    100 ave 100 max 100 min
Histogram: 1 0 0 0 0 0 0 0 0 0
Nghost:    315 ave 315 max 315 min
Histogram: 1 0 0 0 0 0 0 0 0 0
Neighs:    1065 ave 1065 max 1065 min
Histogram: 1 0 0 0 0 0 0 0 0 0

Total # of neighbors = 1065
Ave neighs/atom = 10.65
Ave special neighs/atom = 1.98
Neighbor list builds = 0
Dangerous builds = 0
unfix 1
unfix 2

pair_style    lj/cut/soft 1.0 1.0 1.5
pair_coeff    1 2 0.2 1.0 0.7660000000000006
pair_style    lj/cut/soft 1.0 1.0 1.5
pair_coeff    1 1 0.2 1.0 0.7660000000000006
pair_style    lj/cut/soft 1.0 1.0 1.5
pair_coeff    2 2 0.5 1.0 0.7660000000000006
velocity        all scale 1.0
fix             1 all nve/limit 1.5
fix             2 all langevin 1.0 1.0 1 52690
thermo_style    custom step temp press pe ke
thermo          100
run             100
Per MPI rank memory allocation (min/avg/max) = 5.555 | 5.555 | 5.555 Mbytes
Step Temp Press PotEng KinEng 
  109300            1 -0.0091794757      20.5374        1.485 
  109400   0.96469981 -0.042836791     20.52324    1.4325792 
Loop time of 0.00147891 on 1 procs for 100 steps with 100 atoms

Performance: 29210693.664 tau/day, 67617.346 timesteps/s
99.9% CPU use with 1 MPI tasks x 1 OpenMP threads

MPI task timing breakdown:
Section |  min time  |  avg time  |  max time  |%varavg| %total
---------------------------------------------------------------
Pair    | 0.0004952  | 0.0004952  | 0.0004952  |   0.0 | 33.48
Bond    | 0.00019789 | 0.00019789 | 0.00019789 |   0.0 | 13.38
Neigh   | 0          | 0          | 0          |   0.0 |  0.00
Comm    | 0.00012207 | 0.00012207 | 0.00012207 |   0.0 |  8.25
Output  | 5.9605e-06 | 5.9605e-06 | 5.9605e-06 |   0.0 |  0.40
Modify  | 0.00059962 | 0.00059962 | 0.00059962 |   0.0 | 40.54
Other   |            | 5.817e-05  |            |       |  3.93

Nlocal:    100 ave 100 max 100 min
Histogram: 1 0 0 0 0 0 0 0 0 0
Nghost:    316 ave 316 max 316 min
Histogram: 1 0 0 0 0 0 0 0 0 0
Neighs:    1071 ave 1071 max 1071 min
Histogram: 1 0 0 0 0 0 0 0 0 0

Total # of neighbors = 1071
Ave neighs/atom = 10.71
Ave special neighs/atom = 1.98
Neighbor list builds = 0
Dangerous builds = 0
unfix 1
unfix 2

pair_style    lj/cut/soft 1.0 1.0 1.5
pair_coeff    1 2 0.2 1.0 0.7750000000000006
pair_style    lj/cut/soft 1.0 1.0 1.5
pair_coeff    1 1 0.2 1.0 0.7750000000000006
pair_style    lj/cut/soft 1.0 1.0 1.5
pair_coeff    2 2 0.5 1.0 0.7750000000000006
velocity        all scale 1.0
fix             1 all nve/limit 1.5
fix             2 all langevin 1.0 1.0 1 52690
thermo_style    custom step temp press pe ke
thermo          100
run             100
Per MPI rank memory allocation (min/avg/max) = 5.555 | 5.555 | 5.555 Mbytes
Step Temp Press PotEng KinEng 
  109400            1 -0.042370239    20.522782        1.485 
  109500    1.1320248 -0.011501671    20.430098    1.6810568 
Loop time of 0.00139999 on 1 procs for 100 steps with 100 atoms

Performance: 30857277.384 tau/day, 71428.883 timesteps/s
99.9% CPU use with 1 MPI tasks x 1 OpenMP threads

MPI task timing breakdown:
Section |  min time  |  avg time  |  max time  |%varavg| %total
---------------------------------------------------------------
Pair    | 0.00046539 | 0.00046539 | 0.00046539 |   0.0 | 33.24
Bond    | 0.00016665 | 0.00016665 | 0.00016665 |   0.0 | 11.90
Neigh   | 0          | 0          | 0          |   0.0 |  0.00
Comm    | 0.00012064 | 0.00012064 | 0.00012064 |   0.0 |  8.62
Output  | 5.9605e-06 | 5.9605e-06 | 5.9605e-06 |   0.0 |  0.43
Modify  | 0.00059366 | 0.00059366 | 0.00059366 |   0.0 | 42.40
Other   |            | 4.768e-05  |            |       |  3.41

Nlocal:    100 ave 100 max 100 min
Histogram: 1 0 0 0 0 0 0 0 0 0
Nghost:    312 ave 312 max 312 min
Histogram: 1 0 0 0 0 0 0 0 0 0
Neighs:    1071 ave 1071 max 1071 min
Histogram: 1 0 0 0 0 0 0 0 0 0

Total # of neighbors = 1071
Ave neighs/atom = 10.71
Ave special neighs/atom = 1.98
Neighbor list builds = 0
Dangerous builds = 0
unfix 1
unfix 2

pair_style    lj/cut/soft 1.0 1.0 1.5
pair_coeff    1 2 0.2 1.0 0.7840000000000006
pair_style    lj/cut/soft 1.0 1.0 1.5
pair_coeff    1 1 0.2 1.0 0.7840000000000006
pair_style    lj/cut/soft 1.0 1.0 1.5
pair_coeff    2 2 0.5 1.0 0.7840000000000006
velocity        all scale 1.0
fix             1 all nve/limit 1.5
fix             2 all langevin 1.0 1.0 1 52690
thermo_style    custom step temp press pe ke
thermo          100
run             100
Per MPI rank memory allocation (min/avg/max) = 5.555 | 5.555 | 5.555 Mbytes
Step Temp Press PotEng KinEng 
  109500            1  -0.01303196    20.430799        1.485 
  109600     1.089795  0.002901177    20.547333    1.6183456 
Loop time of 0.00152421 on 1 procs for 100 steps with 100 atoms

Performance: 28342551.666 tau/day, 65607.758 timesteps/s
99.5% CPU use with 1 MPI tasks x 1 OpenMP threads

MPI task timing breakdown:
Section |  min time  |  avg time  |  max time  |%varavg| %total
---------------------------------------------------------------
Pair    | 0.00045085 | 0.00045085 | 0.00045085 |   0.0 | 29.58
Bond    | 0.00018096 | 0.00018096 | 0.00018096 |   0.0 | 11.87
Neigh   | 0          | 0          | 0          |   0.0 |  0.00
Comm    | 0.00013161 | 0.00013161 | 0.00013161 |   0.0 |  8.63
Output  | 1.7881e-05 | 1.7881e-05 | 1.7881e-05 |   0.0 |  1.17
Modify  | 0.00069118 | 0.00069118 | 0.00069118 |   0.0 | 45.35
Other   |            | 5.174e-05  |            |       |  3.39

Nlocal:    100 ave 100 max 100 min
Histogram: 1 0 0 0 0 0 0 0 0 0
Nghost:    313 ave 313 max 313 min
Histogram: 1 0 0 0 0 0 0 0 0 0
Neighs:    1076 ave 1076 max 1076 min
Histogram: 1 0 0 0 0 0 0 0 0 0

Total # of neighbors = 1076
Ave neighs/atom = 10.76
Ave special neighs/atom = 1.98
Neighbor list builds = 0
Dangerous builds = 0
unfix 1
unfix 2

pair_style    lj/cut/soft 1.0 1.0 1.5
pair_coeff    1 2 0.2 1.0 0.7930000000000006
pair_style    lj/cut/soft 1.0 1.0 1.5
pair_coeff    1 1 0.2 1.0 0.7930000000000006
pair_style    lj/cut/soft 1.0 1.0 1.5
pair_coeff    2 2 0.5 1.0 0.7930000000000006
velocity        all scale 1.0
fix             1 all nve/limit 1.5
fix             2 all langevin 1.0 1.0 1 52690
thermo_style    custom step temp press pe ke
thermo          100
run             100
Per MPI rank memory allocation (min/avg/max) = 5.555 | 5.555 | 5.555 Mbytes
Step Temp Press PotEng KinEng 
  109600            1 0.0019297156    20.548439        1.485 
  109700    1.1847035 -0.034752977    20.505427    1.7592847 
Loop time of 0.00146818 on 1 procs for 100 steps with 100 atoms

Performance: 29424152.777 tau/day, 68111.465 timesteps/s
99.8% CPU use with 1 MPI tasks x 1 OpenMP threads

MPI task timing breakdown:
Section |  min time  |  avg time  |  max time  |%varavg| %total
---------------------------------------------------------------
Pair    | 0.00046825 | 0.00046825 | 0.00046825 |   0.0 | 31.89
Bond    | 0.00018167 | 0.00018167 | 0.00018167 |   0.0 | 12.37
Neigh   | 0          | 0          | 0          |   0.0 |  0.00
Comm    | 0.00013375 | 0.00013375 | 0.00013375 |   0.0 |  9.11
Output  | 5.9605e-06 | 5.9605e-06 | 5.9605e-06 |   0.0 |  0.41
Modify  | 0.00063086 | 0.00063086 | 0.00063086 |   0.0 | 42.97
Other   |            | 4.768e-05  |            |       |  3.25

Nlocal:    100 ave 100 max 100 min
Histogram: 1 0 0 0 0 0 0 0 0 0
Nghost:    317 ave 317 max 317 min
Histogram: 1 0 0 0 0 0 0 0 0 0
Neighs:    1074 ave 1074 max 1074 min
Histogram: 1 0 0 0 0 0 0 0 0 0

Total # of neighbors = 1074
Ave neighs/atom = 10.74
Ave special neighs/atom = 1.98
Neighbor list builds = 0
Dangerous builds = 0
unfix 1
unfix 2

pair_style    lj/cut/soft 1.0 1.0 1.5
pair_coeff    1 2 0.2 1.0 0.8020000000000006
pair_style    lj/cut/soft 1.0 1.0 1.5
pair_coeff    1 1 0.2 1.0 0.8020000000000006
pair_style    lj/cut/soft 1.0 1.0 1.5
pair_coeff    2 2 0.5 1.0 0.8020000000000006
velocity        all scale 1.0
fix             1 all nve/limit 1.5
fix             2 all langevin 1.0 1.0 1 52690
thermo_style    custom step temp press pe ke
thermo          100
run             100
Per MPI rank memory allocation (min/avg/max) = 5.555 | 5.555 | 5.555 Mbytes
Step Temp Press PotEng KinEng 
  109700            1 -0.036934919    20.506194        1.485 
  109800   0.92920051 -0.019661701    20.479646    1.3798628 
Loop time of 0.00155687 on 1 procs for 100 steps with 100 atoms

Performance: 27747922.328 tau/day, 64231.302 timesteps/s
99.6% CPU use with 1 MPI tasks x 1 OpenMP threads

MPI task timing breakdown:
Section |  min time  |  avg time  |  max time  |%varavg| %total
---------------------------------------------------------------
Pair    | 0.00045681 | 0.00045681 | 0.00045681 |   0.0 | 29.34
Bond    | 0.00018501 | 0.00018501 | 0.00018501 |   0.0 | 11.88
Neigh   | 5.1022e-05 | 5.1022e-05 | 5.1022e-05 |   0.0 |  3.28
Comm    | 0.00012994 | 0.00012994 | 0.00012994 |   0.0 |  8.35
Output  | 1.1921e-05 | 1.1921e-05 | 1.1921e-05 |   0.0 |  0.77
Modify  | 0.00066233 | 0.00066233 | 0.00066233 |   0.0 | 42.54
Other   |            | 5.984e-05  |            |       |  3.84

Nlocal:    100 ave 100 max 100 min
Histogram: 1 0 0 0 0 0 0 0 0 0
Nghost:    309 ave 309 max 309 min
Histogram: 1 0 0 0 0 0 0 0 0 0
Neighs:    1057 ave 1057 max 1057 min
Histogram: 1 0 0 0 0 0 0 0 0 0

Total # of neighbors = 1057
Ave neighs/atom = 10.57
Ave special neighs/atom = 1.98
Neighbor list builds = 1
Dangerous builds = 0
unfix 1
unfix 2

pair_style    lj/cut/soft 1.0 1.0 1.5
pair_coeff    1 2 0.2 1.0 0.8110000000000006
pair_style    lj/cut/soft 1.0 1.0 1.5
pair_coeff    1 1 0.2 1.0 0.8110000000000006
pair_style    lj/cut/soft 1.0 1.0 1.5
pair_coeff    2 2 0.5 1.0 0.8110000000000006
velocity        all scale 1.0
fix             1 all nve/limit 1.5
fix             2 all langevin 1.0 1.0 1 52690
thermo_style    custom step temp press pe ke
thermo          100
run             100
Per MPI rank memory allocation (min/avg/max) = 5.555 | 5.555 | 5.555 Mbytes
Step Temp Press PotEng KinEng 
  109800            1 -0.018753851    20.479267        1.485 
  109900    1.0049855 -0.035201606    20.521896    1.4924035 
Loop time of 0.00136089 on 1 procs for 100 steps with 100 atoms

Performance: 31743856.482 tau/day, 73481.149 timesteps/s
99.9% CPU use with 1 MPI tasks x 1 OpenMP threads

MPI task timing breakdown:
Section |  min time  |  avg time  |  max time  |%varavg| %total
---------------------------------------------------------------
Pair    | 0.00043607 | 0.00043607 | 0.00043607 |   0.0 | 32.04
Bond    | 0.00016856 | 0.00016856 | 0.00016856 |   0.0 | 12.39
Neigh   | 0          | 0          | 0          |   0.0 |  0.00
Comm    | 0.00012565 | 0.00012565 | 0.00012565 |   0.0 |  9.23
Output  | 5.9605e-06 | 5.9605e-06 | 5.9605e-06 |   0.0 |  0.44
Modify  | 0.00057936 | 0.00057936 | 0.00057936 |   0.0 | 42.57
Other   |            | 4.53e-05   |            |       |  3.33

Nlocal:    100 ave 100 max 100 min
Histogram: 1 0 0 0 0 0 0 0 0 0
Nghost:    309 ave 309 max 309 min
Histogram: 1 0 0 0 0 0 0 0 0 0
Neighs:    1057 ave 1057 max 1057 min
Histogram: 1 0 0 0 0 0 0 0 0 0

Total # of neighbors = 1057
Ave neighs/atom = 10.57
Ave special neighs/atom = 1.98
Neighbor list builds = 0
Dangerous builds = 0
unfix 1
unfix 2

pair_style    lj/cut/soft 1.0 1.0 1.5
pair_coeff    1 2 0.2 1.0 0.8200000000000006
pair_style    lj/cut/soft 1.0 1.0 1.5
pair_coeff    1 1 0.2 1.0 0.8200000000000006
pair_style    lj/cut/soft 1.0 1.0 1.5
pair_coeff    2 2 0.5 1.0 0.8200000000000006
velocity        all scale 1.0
fix             1 all nve/limit 1.5
fix             2 all langevin 1.0 1.0 1 52690
thermo_style    custom step temp press pe ke
thermo          100
run             100
Per MPI rank memory allocation (min/avg/max) = 5.555 | 5.555 | 5.555 Mbytes
Step Temp Press PotEng KinEng 
  109900            1 -0.035158913    20.522369        1.485 
  110000    1.0975822 -0.0068193513    20.466744    1.6299095 
Loop time of 0.00137401 on 1 procs for 100 steps with 100 atoms

Performance: 31440904.529 tau/day, 72779.872 timesteps/s
99.8% CPU use with 1 MPI tasks x 1 OpenMP threads

MPI task timing breakdown:
Section |  min time  |  avg time  |  max time  |%varavg| %total
---------------------------------------------------------------
Pair    | 0.00043702 | 0.00043702 | 0.00043702 |   0.0 | 31.81
Bond    | 0.00017166 | 0.00017166 | 0.00017166 |   0.0 | 12.49
Neigh   | 0          | 0          | 0          |   0.0 |  0.00
Comm    | 0.00012159 | 0.00012159 | 0.00012159 |   0.0 |  8.85
Output  | 5.9605e-06 | 5.9605e-06 | 5.9605e-06 |   0.0 |  0.43
Modify  | 0.00059128 | 0.00059128 | 0.00059128 |   0.0 | 43.03
Other   |            | 4.649e-05  |            |       |  3.38

Nlocal:    100 ave 100 max 100 min
Histogram: 1 0 0 0 0 0 0 0 0 0
Nghost:    311 ave 311 max 311 min
Histogram: 1 0 0 0 0 0 0 0 0 0
Neighs:    1034 ave 1034 max 1034 min
Histogram: 1 0 0 0 0 0 0 0 0 0

Total # of neighbors = 1034
Ave neighs/atom = 10.34
Ave special neighs/atom = 1.98
Neighbor list builds = 0
Dangerous builds = 0
unfix 1
unfix 2

pair_style    lj/cut/soft 1.0 1.0 1.5
pair_coeff    1 2 0.2 1.0 0.8290000000000006
pair_style    lj/cut/soft 1.0 1.0 1.5
pair_coeff    1 1 0.2 1.0 0.8290000000000006
pair_style    lj/cut/soft 1.0 1.0 1.5
pair_coeff    2 2 0.5 1.0 0.8290000000000006
velocity        all scale 1.0
fix             1 all nve/limit 1.5
fix             2 all langevin 1.0 1.0 1 52690
thermo_style    custom step temp press pe ke
thermo          100
run             100
Per MPI rank memory allocation (min/avg/max) = 5.555 | 5.555 | 5.555 Mbytes
Step Temp Press PotEng KinEng 
  110000            1 -0.0079868799    20.466238        1.485 
  110100    1.0792009 0.0063302791    20.665005    1.6026134 
Loop time of 0.00144291 on 1 procs for 100 steps with 100 atoms

Performance: 29939513.020 tau/day, 69304.428 timesteps/s
99.8% CPU use with 1 MPI tasks x 1 OpenMP threads

MPI task timing breakdown:
Section |  min time  |  avg time  |  max time  |%varavg| %total
---------------------------------------------------------------
Pair    | 0.00045228 | 0.00045228 | 0.00045228 |   0.0 | 31.35
Bond    | 0.00017118 | 0.00017118 | 0.00017118 |   0.0 | 11.86
Neigh   | 0          | 0          | 0          |   0.0 |  0.00
Comm    | 0.00012875 | 0.00012875 | 0.00012875 |   0.0 |  8.92
Output  | 5.9605e-06 | 5.9605e-06 | 5.9605e-06 |   0.0 |  0.41
Modify  | 0.00063205 | 0.00063205 | 0.00063205 |   0.0 | 43.80
Other   |            | 5.269e-05  |            |       |  3.65

Nlocal:    100 ave 100 max 100 min
Histogram: 1 0 0 0 0 0 0 0 0 0
Nghost:    318 ave 318 max 318 min
Histogram: 1 0 0 0 0 0 0 0 0 0
Neighs:    1002 ave 1002 max 1002 min
Histogram: 1 0 0 0 0 0 0 0 0 0

Total # of neighbors = 1002
Ave neighs/atom = 10.02
Ave special neighs/atom = 1.98
Neighbor list builds = 0
Dangerous builds = 0
unfix 1
unfix 2

pair_style    lj/cut/soft 1.0 1.0 1.5
pair_coeff    1 2 0.2 1.0 0.8380000000000006
pair_style    lj/cut/soft 1.0 1.0 1.5
pair_coeff    1 1 0.2 1.0 0.8380000000000006
pair_style    lj/cut/soft 1.0 1.0 1.5
pair_coeff    2 2 0.5 1.0 0.8380000000000006
velocity        all scale 1.0
fix             1 all nve/limit 1.5
fix             2 all langevin 1.0 1.0 1 52690
thermo_style    custom step temp press pe ke
thermo          100
run             100
Per MPI rank memory allocation (min/avg/max) = 5.555 | 5.555 | 5.555 Mbytes
Step Temp Press PotEng KinEng 
  110100            1 0.0055287993    20.666517        1.485 
  110200    1.1658175 -0.0078320546    20.523939     1.731239 
Loop time of 0.00135708 on 1 procs for 100 steps with 100 atoms

Performance: 31833087.280 tau/day, 73687.702 timesteps/s
99.8% CPU use with 1 MPI tasks x 1 OpenMP threads

MPI task timing breakdown:
Section |  min time  |  avg time  |  max time  |%varavg| %total
---------------------------------------------------------------
Pair    | 0.00040436 | 0.00040436 | 0.00040436 |   0.0 | 29.80
Bond    | 0.00017214 | 0.00017214 | 0.00017214 |   0.0 | 12.68
Neigh   | 0          | 0          | 0          |   0.0 |  0.00
Comm    | 0.00013018 | 0.00013018 | 0.00013018 |   0.0 |  9.59
Output  | 5.9605e-06 | 5.9605e-06 | 5.9605e-06 |   0.0 |  0.44
Modify  | 0.00059795 | 0.00059795 | 0.00059795 |   0.0 | 44.06
Other   |            | 4.649e-05  |            |       |  3.43

Nlocal:    100 ave 100 max 100 min
Histogram: 1 0 0 0 0 0 0 0 0 0
Nghost:    318 ave 318 max 318 min
Histogram: 1 0 0 0 0 0 0 0 0 0
Neighs:    971 ave 971 max 971 min
Histogram: 1 0 0 0 0 0 0 0 0 0

Total # of neighbors = 971
Ave neighs/atom = 9.71
Ave special neighs/atom = 1.98
Neighbor list builds = 0
Dangerous builds = 0
unfix 1
unfix 2

pair_style    lj/cut/soft 1.0 1.0 1.5
pair_coeff    1 2 0.2 1.0 0.8470000000000006
pair_style    lj/cut/soft 1.0 1.0 1.5
pair_coeff    1 1 0.2 1.0 0.8470000000000006
pair_style    lj/cut/soft 1.0 1.0 1.5
pair_coeff    2 2 0.5 1.0 0.8470000000000006
velocity        all scale 1.0
fix             1 all nve/limit 1.5
fix             2 all langevin 1.0 1.0 1 52690
thermo_style    custom step temp press pe ke
thermo          100
run             100
Per MPI rank memory allocation (min/avg/max) = 5.555 | 5.555 | 5.555 Mbytes
Step Temp Press PotEng KinEng 
  110200            1 -0.009879642    20.523287        1.485 
  110300    1.0514863  -0.02420603    20.534051    1.5614572 
Loop time of 0.00138783 on 1 procs for 100 steps with 100 atoms

Performance: 31127629.754 tau/day, 72054.699 timesteps/s
99.9% CPU use with 1 MPI tasks x 1 OpenMP threads

MPI task timing breakdown:
Section |  min time  |  avg time  |  max time  |%varavg| %total
---------------------------------------------------------------
Pair    | 0.00041008 | 0.00041008 | 0.00041008 |   0.0 | 29.55
Bond    | 0.00018191 | 0.00018191 | 0.00018191 |   0.0 | 13.11
Neigh   | 0          | 0          | 0          |   0.0 |  0.00
Comm    | 0.00013137 | 0.00013137 | 0.00013137 |   0.0 |  9.47
Output  | 6.9141e-06 | 6.9141e-06 | 6.9141e-06 |   0.0 |  0.50
Modify  | 0.00060034 | 0.00060034 | 0.00060034 |   0.0 | 43.26
Other   |            | 5.722e-05  |            |       |  4.12

Nlocal:    100 ave 100 max 100 min
Histogram: 1 0 0 0 0 0 0 0 0 0
Nghost:    319 ave 319 max 319 min
Histogram: 1 0 0 0 0 0 0 0 0 0
Neighs:    919 ave 919 max 919 min
Histogram: 1 0 0 0 0 0 0 0 0 0

Total # of neighbors = 919
Ave neighs/atom = 9.19
Ave special neighs/atom = 1.98
Neighbor list builds = 0
Dangerous builds = 0
unfix 1
unfix 2

pair_style    lj/cut/soft 1.0 1.0 1.5
pair_coeff    1 2 0.2 1.0 0.8560000000000006
pair_style    lj/cut/soft 1.0 1.0 1.5
pair_coeff    1 1 0.2 1.0 0.8560000000000006
pair_style    lj/cut/soft 1.0 1.0 1.5
pair_coeff    2 2 0.5 1.0 0.8560000000000006
velocity        all scale 1.0
fix             1 all nve/limit 1.5
fix             2 all langevin 1.0 1.0 1 52690
thermo_style    custom step temp press pe ke
thermo          100
run             100
Per MPI rank memory allocation (min/avg/max) = 5.555 | 5.555 | 5.555 Mbytes
Step Temp Press PotEng KinEng 
  110300            1 -0.024760583    20.534156        1.485 
  110400    1.1332644 -0.0078181768    20.569922    1.6828977 
Loop time of 0.00135398 on 1 procs for 100 steps with 100 atoms

Performance: 31905957.528 tau/day, 73856.383 timesteps/s
99.5% CPU use with 1 MPI tasks x 1 OpenMP threads

MPI task timing breakdown:
Section |  min time  |  avg time  |  max time  |%varavg| %total
---------------------------------------------------------------
Pair    | 0.0003767  | 0.0003767  | 0.0003767  |   0.0 | 27.82
Bond    | 0.00019145 | 0.00019145 | 0.00019145 |   0.0 | 14.14
Neigh   | 0          | 0          | 0          |   0.0 |  0.00
Comm    | 0.00012684 | 0.00012684 | 0.00012684 |   0.0 |  9.37
Output  | 1.0014e-05 | 1.0014e-05 | 1.0014e-05 |   0.0 |  0.74
Modify  | 0.00058818 | 0.00058818 | 0.00058818 |   0.0 | 43.44
Other   |            | 6.08e-05   |            |       |  4.49

Nlocal:    100 ave 100 max 100 min
Histogram: 1 0 0 0 0 0 0 0 0 0
Nghost:    320 ave 320 max 320 min
Histogram: 1 0 0 0 0 0 0 0 0 0
Neighs:    898 ave 898 max 898 min
Histogram: 1 0 0 0 0 0 0 0 0 0

Total # of neighbors = 898
Ave neighs/atom = 8.98
Ave special neighs/atom = 1.98
Neighbor list builds = 0
Dangerous builds = 0
unfix 1
unfix 2

pair_style    lj/cut/soft 1.0 1.0 1.5
pair_coeff    1 2 0.2 1.0 0.8650000000000007
pair_style    lj/cut/soft 1.0 1.0 1.5
pair_coeff    1 1 0.2 1.0 0.8650000000000007
pair_style    lj/cut/soft 1.0 1.0 1.5
pair_coeff    2 2 0.5 1.0 0.8650000000000007
velocity        all scale 1.0
fix             1 all nve/limit 1.5
fix             2 all langevin 1.0 1.0 1 52690
thermo_style    custom step temp press pe ke
thermo          100
run             100
Per MPI rank memory allocation (min/avg/max) = 5.555 | 5.555 | 5.555 Mbytes
Step Temp Press PotEng KinEng 
  110400            1 -0.0094550145    20.569314        1.485 
  110500    1.1340759 -0.0023368624    20.364992    1.6841027 
Loop time of 0.00149488 on 1 procs for 100 steps with 100 atoms

Performance: 28898553.876 tau/day, 66894.801 timesteps/s
99.5% CPU use with 1 MPI tasks x 1 OpenMP threads

MPI task timing breakdown:
Section |  min time  |  avg time  |  max time  |%varavg| %total
---------------------------------------------------------------
Pair    | 0.00047612 | 0.00047612 | 0.00047612 |   0.0 | 31.85
Bond    | 0.00018239 | 0.00018239 | 0.00018239 |   0.0 | 12.20
Neigh   | 0          | 0          | 0          |   0.0 |  0.00
Comm    | 0.00013161 | 0.00013161 | 0.00013161 |   0.0 |  8.80
Output  | 1.9073e-05 | 1.9073e-05 | 1.9073e-05 |   0.0 |  1.28
Modify  | 0.00063539 | 0.00063539 | 0.00063539 |   0.0 | 42.50
Other   |            | 5.031e-05  |            |       |  3.37

Nlocal:    100 ave 100 max 100 min
Histogram: 1 0 0 0 0 0 0 0 0 0
Nghost:    312 ave 312 max 312 min
Histogram: 1 0 0 0 0 0 0 0 0 0
Neighs:    893 ave 893 max 893 min
Histogram: 1 0 0 0 0 0 0 0 0 0

Total # of neighbors = 893
Ave neighs/atom = 8.93
Ave special neighs/atom = 1.98
Neighbor list builds = 0
Dangerous builds = 0
unfix 1
unfix 2

pair_style    lj/cut/soft 1.0 1.0 1.5
pair_coeff    1 2 0.2 1.0 0.8740000000000007
pair_style    lj/cut/soft 1.0 1.0 1.5
pair_coeff    1 1 0.2 1.0 0.8740000000000007
pair_style    lj/cut/soft 1.0 1.0 1.5
pair_coeff    2 2 0.5 1.0 0.8740000000000007
velocity        all scale 1.0
fix             1 all nve/limit 1.5
fix             2 all langevin 1.0 1.0 1 52690
thermo_style    custom step temp press pe ke
thermo          100
run             100
Per MPI rank memory allocation (min/avg/max) = 5.555 | 5.555 | 5.555 Mbytes
Step Temp Press PotEng KinEng 
  110500            1 -0.003977223    20.364401        1.485 
  110600   0.98994053 -0.0028120168    20.432259    1.4700617 
Loop time of 0.00153399 on 1 procs for 100 steps with 100 atoms

Performance: 28161941.685 tau/day, 65189.680 timesteps/s
99.5% CPU use with 1 MPI tasks x 1 OpenMP threads

MPI task timing breakdown:
Section |  min time  |  avg time  |  max time  |%varavg| %total
---------------------------------------------------------------
Pair    | 0.00042582 | 0.00042582 | 0.00042582 |   0.0 | 27.76
Bond    | 0.00018668 | 0.00018668 | 0.00018668 |   0.0 | 12.17
Neigh   | 0          | 0          | 0          |   0.0 |  0.00
Comm    | 0.00015211 | 0.00015211 | 0.00015211 |   0.0 |  9.92
Output  | 1.9073e-05 | 1.9073e-05 | 1.9073e-05 |   0.0 |  1.24
Modify  | 0.00070238 | 0.00070238 | 0.00070238 |   0.0 | 45.79
Other   |            | 4.792e-05  |            |       |  3.12

Nlocal:    100 ave 100 max 100 min
Histogram: 1 0 0 0 0 0 0 0 0 0
Nghost:    321 ave 321 max 321 min
Histogram: 1 0 0 0 0 0 0 0 0 0
Neighs:    917 ave 917 max 917 min
Histogram: 1 0 0 0 0 0 0 0 0 0

Total # of neighbors = 917
Ave neighs/atom = 9.17
Ave special neighs/atom = 1.98
Neighbor list builds = 0
Dangerous builds = 0
unfix 1
unfix 2

pair_style    lj/cut/soft 1.0 1.0 1.5
pair_coeff    1 2 0.2 1.0 0.8830000000000007
pair_style    lj/cut/soft 1.0 1.0 1.5
pair_coeff    1 1 0.2 1.0 0.8830000000000007
pair_style    lj/cut/soft 1.0 1.0 1.5
pair_coeff    2 2 0.5 1.0 0.8830000000000007
velocity        all scale 1.0
fix             1 all nve/limit 1.5
fix             2 all langevin 1.0 1.0 1 52690
thermo_style    custom step temp press pe ke
thermo          100
run             100
Per MPI rank memory allocation (min/avg/max) = 5.555 | 5.555 | 5.555 Mbytes
Step Temp Press PotEng KinEng 
  110600            1 -0.0026456963    20.431774        1.485 
  110700    1.0722166 -0.019421677    20.434368    1.5922416 
Loop time of 0.00142789 on 1 procs for 100 steps with 100 atoms

Performance: 30254455.301 tau/day, 70033.461 timesteps/s
99.8% CPU use with 1 MPI tasks x 1 OpenMP threads

MPI task timing breakdown:
Section |  min time  |  avg time  |  max time  |%varavg| %total
---------------------------------------------------------------
Pair    | 0.00042415 | 0.00042415 | 0.00042415 |   0.0 | 29.70
Bond    | 0.00017428 | 0.00017428 | 0.00017428 |   0.0 | 12.21
Neigh   | 0          | 0          | 0          |   0.0 |  0.00
Comm    | 0.00012565 | 0.00012565 | 0.00012565 |   0.0 |  8.80
Output  | 7.1526e-06 | 7.1526e-06 | 7.1526e-06 |   0.0 |  0.50
Modify  | 0.00064015 | 0.00064015 | 0.00064015 |   0.0 | 44.83
Other   |            | 5.651e-05  |            |       |  3.96

Nlocal:    100 ave 100 max 100 min
Histogram: 1 0 0 0 0 0 0 0 0 0
Nghost:    315 ave 315 max 315 min
Histogram: 1 0 0 0 0 0 0 0 0 0
Neighs:    921 ave 921 max 921 min
Histogram: 1 0 0 0 0 0 0 0 0 0

Total # of neighbors = 921
Ave neighs/atom = 9.21
Ave special neighs/atom = 1.98
Neighbor list builds = 0
Dangerous builds = 0
unfix 1
unfix 2

pair_style    lj/cut/soft 1.0 1.0 1.5
pair_coeff    1 2 0.2 1.0 0.8920000000000007
pair_style    lj/cut/soft 1.0 1.0 1.5
pair_coeff    1 1 0.2 1.0 0.8920000000000007
pair_style    lj/cut/soft 1.0 1.0 1.5
pair_coeff    2 2 0.5 1.0 0.8920000000000007
velocity        all scale 1.0
fix             1 all nve/limit 1.5
fix             2 all langevin 1.0 1.0 1 52690
thermo_style    custom step temp press pe ke
thermo          100
run             100
Per MPI rank memory allocation (min/avg/max) = 5.555 | 5.555 | 5.555 Mbytes
Step Temp Press PotEng KinEng 
  110700            1 -0.020297653    20.433885        1.485 
  110800   0.91465261 0.0050957543    20.439656    1.3582591 
Loop time of 0.00148892 on 1 procs for 100 steps with 100 atoms

Performance: 29014240.641 tau/day, 67162.594 timesteps/s
99.5% CPU use with 1 MPI tasks x 1 OpenMP threads

MPI task timing breakdown:
Section |  min time  |  avg time  |  max time  |%varavg| %total
---------------------------------------------------------------
Pair    | 0.00040054 | 0.00040054 | 0.00040054 |   0.0 | 26.90
Bond    | 0.00018978 | 0.00018978 | 0.00018978 |   0.0 | 12.75
Neigh   | 0          | 0          | 0          |   0.0 |  0.00
Comm    | 0.00013447 | 0.00013447 | 0.00013447 |   0.0 |  9.03
Output  | 1.9073e-05 | 1.9073e-05 | 1.9073e-05 |   0.0 |  1.28
Modify  | 0.00069547 | 0.00069547 | 0.00069547 |   0.0 | 46.71
Other   |            | 4.959e-05  |            |       |  3.33

Nlocal:    100 ave 100 max 100 min
Histogram: 1 0 0 0 0 0 0 0 0 0
Nghost:    306 ave 306 max 306 min
Histogram: 1 0 0 0 0 0 0 0 0 0
Neighs:    917 ave 917 max 917 min
Histogram: 1 0 0 0 0 0 0 0 0 0

Total # of neighbors = 917
Ave neighs/atom = 9.17
Ave special neighs/atom = 1.98
Neighbor list builds = 0
Dangerous builds = 0
unfix 1
unfix 2

pair_style    lj/cut/soft 1.0 1.0 1.5
pair_coeff    1 2 0.2 1.0 0.9010000000000007
pair_style    lj/cut/soft 1.0 1.0 1.5
pair_coeff    1 1 0.2 1.0 0.9010000000000007
pair_style    lj/cut/soft 1.0 1.0 1.5
pair_coeff    2 2 0.5 1.0 0.9010000000000007
velocity        all scale 1.0
fix             1 all nve/limit 1.5
fix             2 all langevin 1.0 1.0 1 52690
thermo_style    custom step temp press pe ke
thermo          100
run             100
Per MPI rank memory allocation (min/avg/max) = 5.555 | 5.555 | 5.555 Mbytes
Step Temp Press PotEng KinEng 
  110800            1 0.0061759362    20.439394        1.485 
  110900    1.0977006 -0.0079866414    20.477862    1.6300854 
Loop time of 0.00140285 on 1 procs for 100 steps with 100 atoms

Performance: 30794346.159 tau/day, 71283.209 timesteps/s
99.8% CPU use with 1 MPI tasks x 1 OpenMP threads

MPI task timing breakdown:
Section |  min time  |  avg time  |  max time  |%varavg| %total
---------------------------------------------------------------
Pair    | 0.00039721 | 0.00039721 | 0.00039721 |   0.0 | 28.31
Bond    | 0.0001862  | 0.0001862  | 0.0001862  |   0.0 | 13.27
Neigh   | 0          | 0          | 0          |   0.0 |  0.00
Comm    | 0.0001266  | 0.0001266  | 0.0001266  |   0.0 |  9.02
Output  | 6.9141e-06 | 6.9141e-06 | 6.9141e-06 |   0.0 |  0.49
Modify  | 0.00063777 | 0.00063777 | 0.00063777 |   0.0 | 45.46
Other   |            | 4.816e-05  |            |       |  3.43

Nlocal:    100 ave 100 max 100 min
Histogram: 1 0 0 0 0 0 0 0 0 0
Nghost:    297 ave 297 max 297 min
Histogram: 1 0 0 0 0 0 0 0 0 0
Neighs:    892 ave 892 max 892 min
Histogram: 1 0 0 0 0 0 0 0 0 0

Total # of neighbors = 892
Ave neighs/atom = 8.92
Ave special neighs/atom = 1.98
Neighbor list builds = 0
Dangerous builds = 0
unfix 1
unfix 2

pair_style    lj/cut/soft 1.0 1.0 1.5
pair_coeff    1 2 0.2 1.0 0.9100000000000007
pair_style    lj/cut/soft 1.0 1.0 1.5
pair_coeff    1 1 0.2 1.0 0.9100000000000007
pair_style    lj/cut/soft 1.0 1.0 1.5
pair_coeff    2 2 0.5 1.0 0.9100000000000007
velocity        all scale 1.0
fix             1 all nve/limit 1.5
fix             2 all langevin 1.0 1.0 1 52690
thermo_style    custom step temp press pe ke
thermo          100
run             100
Per MPI rank memory allocation (min/avg/max) = 5.555 | 5.555 | 5.555 Mbytes
Step Temp Press PotEng KinEng 
  110900            1 -0.0091723134    20.477556        1.485 
  111000    1.1928764 -0.007951324    20.294435    1.7714214 
Loop time of 0.00150514 on 1 procs for 100 steps with 100 atoms

Performance: 28701715.951 tau/day, 66439.157 timesteps/s
99.5% CPU use with 1 MPI tasks x 1 OpenMP threads

MPI task timing breakdown:
Section |  min time  |  avg time  |  max time  |%varavg| %total
---------------------------------------------------------------
Pair    | 0.00047898 | 0.00047898 | 0.00047898 |   0.0 | 31.82
Bond    | 0.00018525 | 0.00018525 | 0.00018525 |   0.0 | 12.31
Neigh   | 0          | 0          | 0          |   0.0 |  0.00
Comm    | 0.00012994 | 0.00012994 | 0.00012994 |   0.0 |  8.63
Output  | 1.7881e-05 | 1.7881e-05 | 1.7881e-05 |   0.0 |  1.19
Modify  | 0.00065088 | 0.00065088 | 0.00065088 |   0.0 | 43.24
Other   |            | 4.22e-05   |            |       |  2.80

Nlocal:    100 ave 100 max 100 min
Histogram: 1 0 0 0 0 0 0 0 0 0
Nghost:    290 ave 290 max 290 min
Histogram: 1 0 0 0 0 0 0 0 0 0
Neighs:    882 ave 882 max 882 min
Histogram: 1 0 0 0 0 0 0 0 0 0

Total # of neighbors = 882
Ave neighs/atom = 8.82
Ave special neighs/atom = 1.98
Neighbor list builds = 0
Dangerous builds = 0
unfix 1
unfix 2

pair_style    lj/cut/soft 1.0 1.0 1.5
pair_coeff    1 2 0.2 1.0 0.9190000000000007
pair_style    lj/cut/soft 1.0 1.0 1.5
pair_coeff    1 1 0.2 1.0 0.9190000000000007
pair_style    lj/cut/soft 1.0 1.0 1.5
pair_coeff    2 2 0.5 1.0 0.9190000000000007
velocity        all scale 1.0
fix             1 all nve/limit 1.5
fix             2 all langevin 1.0 1.0 1 52690
thermo_style    custom step temp press pe ke
thermo          100
run             100
Per MPI rank memory allocation (min/avg/max) = 5.555 | 5.555 | 5.555 Mbytes
Step Temp Press PotEng KinEng 
  111000            1 -0.010324246    20.293504        1.485 
  111100    1.0501379  0.012793929    20.433554    1.5594548 
Loop time of 0.00142717 on 1 procs for 100 steps with 100 atoms

Performance: 30269617.908 tau/day, 70068.560 timesteps/s
99.8% CPU use with 1 MPI tasks x 1 OpenMP threads

MPI task timing breakdown:
Section |  min time  |  avg time  |  max time  |%varavg| %total
---------------------------------------------------------------
Pair    | 0.00042176 | 0.00042176 | 0.00042176 |   0.0 | 29.55
Bond    | 0.00019073 | 0.00019073 | 0.00019073 |   0.0 | 13.36
Neigh   | 0          | 0          | 0          |   0.0 |  0.00
Comm    | 0.00012565 | 0.00012565 | 0.00012565 |   0.0 |  8.80
Output  | 7.1526e-06 | 7.1526e-06 | 7.1526e-06 |   0.0 |  0.50
Modify  | 0.00063467 | 0.00063467 | 0.00063467 |   0.0 | 44.47
Other   |            | 4.721e-05  |            |       |  3.31

Nlocal:    100 ave 100 max 100 min
Histogram: 1 0 0 0 0 0 0 0 0 0
Nghost:    286 ave 286 max 286 min
Histogram: 1 0 0 0 0 0 0 0 0 0
Neighs:    873 ave 873 max 873 min
Histogram: 1 0 0 0 0 0 0 0 0 0

Total # of neighbors = 873
Ave neighs/atom = 8.73
Ave special neighs/atom = 1.98
Neighbor list builds = 0
Dangerous builds = 0
unfix 1
unfix 2

pair_style    lj/cut/soft 1.0 1.0 1.5
pair_coeff    1 2 0.2 1.0 0.9280000000000007
pair_style    lj/cut/soft 1.0 1.0 1.5
pair_coeff    1 1 0.2 1.0 0.9280000000000007
pair_style    lj/cut/soft 1.0 1.0 1.5
pair_coeff    2 2 0.5 1.0 0.9280000000000007
velocity        all scale 1.0
fix             1 all nve/limit 1.5
fix             2 all langevin 1.0 1.0 1 52690
thermo_style    custom step temp press pe ke
thermo          100
run             100
Per MPI rank memory allocation (min/avg/max) = 5.555 | 5.555 | 5.555 Mbytes
Step Temp Press PotEng KinEng 
  111100            1  0.012197341    20.432969        1.485 
  111200    1.0546193 0.0042685214    20.457789    1.5661096 
Loop time of 0.00138903 on 1 procs for 100 steps with 100 atoms

Performance: 31100915.345 tau/day, 71992.860 timesteps/s
99.9% CPU use with 1 MPI tasks x 1 OpenMP threads

MPI task timing breakdown:
Section |  min time  |  avg time  |  max time  |%varavg| %total
---------------------------------------------------------------
Pair    | 0.00040603 | 0.00040603 | 0.00040603 |   0.0 | 29.23
Bond    | 0.0001843  | 0.0001843  | 0.0001843  |   0.0 | 13.27
Neigh   | 0          | 0          | 0          |   0.0 |  0.00
Comm    | 0.00012064 | 0.00012064 | 0.00012064 |   0.0 |  8.69
Output  | 6.9141e-06 | 6.9141e-06 | 6.9141e-06 |   0.0 |  0.50
Modify  | 0.00063396 | 0.00063396 | 0.00063396 |   0.0 | 45.64
Other   |            | 3.719e-05  |            |       |  2.68

Nlocal:    100 ave 100 max 100 min
Histogram: 1 0 0 0 0 0 0 0 0 0
Nghost:    284 ave 284 max 284 min
Histogram: 1 0 0 0 0 0 0 0 0 0
Neighs:    906 ave 906 max 906 min
Histogram: 1 0 0 0 0 0 0 0 0 0

Total # of neighbors = 906
Ave neighs/atom = 9.06
Ave special neighs/atom = 1.98
Neighbor list builds = 0
Dangerous builds = 0
unfix 1
unfix 2

pair_style    lj/cut/soft 1.0 1.0 1.5
pair_coeff    1 2 0.2 1.0 0.9370000000000007
pair_style    lj/cut/soft 1.0 1.0 1.5
pair_coeff    1 1 0.2 1.0 0.9370000000000007
pair_style    lj/cut/soft 1.0 1.0 1.5
pair_coeff    2 2 0.5 1.0 0.9370000000000007
velocity        all scale 1.0
fix             1 all nve/limit 1.5
fix             2 all langevin 1.0 1.0 1 52690
thermo_style    custom step temp press pe ke
thermo          100
run             100
Per MPI rank memory allocation (min/avg/max) = 5.555 | 5.555 | 5.555 Mbytes
Step Temp Press PotEng KinEng 
  111200            1 0.0035927476    20.456975        1.485 
  111300    1.1051971 0.0030114441    20.454941    1.6412177 
Loop time of 0.0014441 on 1 procs for 100 steps with 100 atoms

Performance: 29914798.217 tau/day, 69247.218 timesteps/s
99.6% CPU use with 1 MPI tasks x 1 OpenMP threads

MPI task timing breakdown:
Section |  min time  |  avg time  |  max time  |%varavg| %total
---------------------------------------------------------------
Pair    | 0.00042367 | 0.00042367 | 0.00042367 |   0.0 | 29.34
Bond    | 0.00020003 | 0.00020003 | 0.00020003 |   0.0 | 13.85
Neigh   | 0          | 0          | 0          |   0.0 |  0.00
Comm    | 0.00010967 | 0.00010967 | 0.00010967 |   0.0 |  7.59
Output  | 1.2159e-05 | 1.2159e-05 | 1.2159e-05 |   0.0 |  0.84
Modify  | 0.00065327 | 0.00065327 | 0.00065327 |   0.0 | 45.24
Other   |            | 4.53e-05   |            |       |  3.14

Nlocal:    100 ave 100 max 100 min
Histogram: 1 0 0 0 0 0 0 0 0 0
Nghost:    297 ave 297 max 297 min
Histogram: 1 0 0 0 0 0 0 0 0 0
Neighs:    938 ave 938 max 938 min
Histogram: 1 0 0 0 0 0 0 0 0 0

Total # of neighbors = 938
Ave neighs/atom = 9.38
Ave special neighs/atom = 1.98
Neighbor list builds = 0
Dangerous builds = 0
unfix 1
unfix 2

pair_style    lj/cut/soft 1.0 1.0 1.5
pair_coeff    1 2 0.2 1.0 0.9460000000000007
pair_style    lj/cut/soft 1.0 1.0 1.5
pair_coeff    1 1 0.2 1.0 0.9460000000000007
pair_style    lj/cut/soft 1.0 1.0 1.5
pair_coeff    2 2 0.5 1.0 0.9460000000000007
velocity        all scale 1.0
fix             1 all nve/limit 1.5
fix             2 all langevin 1.0 1.0 1 52690
thermo_style    custom step temp press pe ke
thermo          100
run             100
Per MPI rank memory allocation (min/avg/max) = 5.555 | 5.555 | 5.555 Mbytes
Step Temp Press PotEng KinEng 
  111300            1 0.0017358905    20.454425        1.485 
  111400    1.0684083 -0.023978893    20.565443    1.5865863 
Loop time of 0.00160503 on 1 procs for 100 steps with 100 atoms

Performance: 26915319.786 tau/day, 62303.981 timesteps/s
99.9% CPU use with 1 MPI tasks x 1 OpenMP threads

MPI task timing breakdown:
Section |  min time  |  avg time  |  max time  |%varavg| %total
---------------------------------------------------------------
Pair    | 0.00051355 | 0.00051355 | 0.00051355 |   0.0 | 32.00
Bond    | 0.00019479 | 0.00019479 | 0.00019479 |   0.0 | 12.14
Neigh   | 0          | 0          | 0          |   0.0 |  0.00
Comm    | 0.00013566 | 0.00013566 | 0.00013566 |   0.0 |  8.45
Output  | 5.9605e-06 | 5.9605e-06 | 5.9605e-06 |   0.0 |  0.37
Modify  | 0.00069308 | 0.00069308 | 0.00069308 |   0.0 | 43.18
Other   |            | 6.199e-05  |            |       |  3.86

Nlocal:    100 ave 100 max 100 min
Histogram: 1 0 0 0 0 0 0 0 0 0
Nghost:    301 ave 301 max 301 min
Histogram: 1 0 0 0 0 0 0 0 0 0
Neighs:    1009 ave 1009 max 1009 min
Histogram: 1 0 0 0 0 0 0 0 0 0

Total # of neighbors = 1009
Ave neighs/atom = 10.09
Ave special neighs/atom = 1.98
Neighbor list builds = 0
Dangerous builds = 0
unfix 1
unfix 2

pair_style    lj/cut/soft 1.0 1.0 1.5
pair_coeff    1 2 0.2 1.0 0.9550000000000007
pair_style    lj/cut/soft 1.0 1.0 1.5
pair_coeff    1 1 0.2 1.0 0.9550000000000007
pair_style    lj/cut/soft 1.0 1.0 1.5
pair_coeff    2 2 0.5 1.0 0.9550000000000007
velocity        all scale 1.0
fix             1 all nve/limit 1.5
fix             2 all langevin 1.0 1.0 1 52690
thermo_style    custom step temp press pe ke
thermo          100
run             100
Per MPI rank memory allocation (min/avg/max) = 5.555 | 5.555 | 5.555 Mbytes
Step Temp Press PotEng KinEng 
  111400            1 -0.024729694    20.565452        1.485 
  111500    1.0237242 -0.0046044419    20.531095    1.5202305 
Loop time of 0.00148702 on 1 procs for 100 steps with 100 atoms

Performance: 29051456.277 tau/day, 67248.741 timesteps/s
99.5% CPU use with 1 MPI tasks x 1 OpenMP threads

MPI task timing breakdown:
Section |  min time  |  avg time  |  max time  |%varavg| %total
---------------------------------------------------------------
Pair    | 0.00046515 | 0.00046515 | 0.00046515 |   0.0 | 31.28
Bond    | 0.00018191 | 0.00018191 | 0.00018191 |   0.0 | 12.23
Neigh   | 0          | 0          | 0          |   0.0 |  0.00
Comm    | 0.00013137 | 0.00013137 | 0.00013137 |   0.0 |  8.83
Output  | 1.0967e-05 | 1.0967e-05 | 1.0967e-05 |   0.0 |  0.74
Modify  | 0.00064588 | 0.00064588 | 0.00064588 |   0.0 | 43.43
Other   |            | 5.174e-05  |            |       |  3.48

Nlocal:    100 ave 100 max 100 min
Histogram: 1 0 0 0 0 0 0 0 0 0
Nghost:    311 ave 311 max 311 min
Histogram: 1 0 0 0 0 0 0 0 0 0
Neighs:    1048 ave 1048 max 1048 min
Histogram: 1 0 0 0 0 0 0 0 0 0

Total # of neighbors = 1048
Ave neighs/atom = 10.48
Ave special neighs/atom = 1.98
Neighbor list builds = 0
Dangerous builds = 0
unfix 1
unfix 2

pair_style    lj/cut/soft 1.0 1.0 1.5
pair_coeff    1 2 0.2 1.0 0.9640000000000007
pair_style    lj/cut/soft 1.0 1.0 1.5
pair_coeff    1 1 0.2 1.0 0.9640000000000007
pair_style    lj/cut/soft 1.0 1.0 1.5
pair_coeff    2 2 0.5 1.0 0.9640000000000007
velocity        all scale 1.0
fix             1 all nve/limit 1.5
fix             2 all langevin 1.0 1.0 1 52690
thermo_style    custom step temp press pe ke
thermo          100
run             100
Per MPI rank memory allocation (min/avg/max) = 5.555 | 5.555 | 5.555 Mbytes
Step Temp Press PotEng KinEng 
  111500            1 -0.0048696974    20.530865        1.485 
  111600    1.0237985 0.0071670507    20.517606    1.5203407 
Loop time of 0.00147796 on 1 procs for 100 steps with 100 atoms

Performance: 29229542.313 tau/day, 67660.978 timesteps/s
99.9% CPU use with 1 MPI tasks x 1 OpenMP threads

MPI task timing breakdown:
Section |  min time  |  avg time  |  max time  |%varavg| %total
---------------------------------------------------------------
Pair    | 0.0004673  | 0.0004673  | 0.0004673  |   0.0 | 31.62
Bond    | 0.00018573 | 0.00018573 | 0.00018573 |   0.0 | 12.57
Neigh   | 0          | 0          | 0          |   0.0 |  0.00
Comm    | 0.00012922 | 0.00012922 | 0.00012922 |   0.0 |  8.74
Output  | 7.1526e-06 | 7.1526e-06 | 7.1526e-06 |   0.0 |  0.48
Modify  | 0.00063372 | 0.00063372 | 0.00063372 |   0.0 | 42.88
Other   |            | 5.484e-05  |            |       |  3.71

Nlocal:    100 ave 100 max 100 min
Histogram: 1 0 0 0 0 0 0 0 0 0
Nghost:    302 ave 302 max 302 min
Histogram: 1 0 0 0 0 0 0 0 0 0
Neighs:    1083 ave 1083 max 1083 min
Histogram: 1 0 0 0 0 0 0 0 0 0

Total # of neighbors = 1083
Ave neighs/atom = 10.83
Ave special neighs/atom = 1.98
Neighbor list builds = 0
Dangerous builds = 0
unfix 1
unfix 2

pair_style    lj/cut/soft 1.0 1.0 1.5
pair_coeff    1 2 0.2 1.0 0.9730000000000008
pair_style    lj/cut/soft 1.0 1.0 1.5
pair_coeff    1 1 0.2 1.0 0.9730000000000008
pair_style    lj/cut/soft 1.0 1.0 1.5
pair_coeff    2 2 0.5 1.0 0.9730000000000008
velocity        all scale 1.0
fix             1 all nve/limit 1.5
fix             2 all langevin 1.0 1.0 1 52690
thermo_style    custom step temp press pe ke
thermo          100
run             100
Per MPI rank memory allocation (min/avg/max) = 5.555 | 5.555 | 5.555 Mbytes
Step Temp Press PotEng KinEng 
  111600            1  0.006882249    20.516748        1.485 
  111700    1.0812509 -0.014388025    20.409562    1.6056577 
Loop time of 0.00150895 on 1 procs for 100 steps with 100 atoms

Performance: 28629156.707 tau/day, 66271.196 timesteps/s
99.5% CPU use with 1 MPI tasks x 1 OpenMP threads

MPI task timing breakdown:
Section |  min time  |  avg time  |  max time  |%varavg| %total
---------------------------------------------------------------
Pair    | 0.00050712 | 0.00050712 | 0.00050712 |   0.0 | 33.61
Bond    | 0.00017428 | 0.00017428 | 0.00017428 |   0.0 | 11.55
Neigh   | 0          | 0          | 0          |   0.0 |  0.00
Comm    | 0.00012755 | 0.00012755 | 0.00012755 |   0.0 |  8.45
Output  | 6.9141e-06 | 6.9141e-06 | 6.9141e-06 |   0.0 |  0.46
Modify  | 0.00063896 | 0.00063896 | 0.00063896 |   0.0 | 42.34
Other   |            | 5.412e-05  |            |       |  3.59

Nlocal:    100 ave 100 max 100 min
Histogram: 1 0 0 0 0 0 0 0 0 0
Nghost:    323 ave 323 max 323 min
Histogram: 1 0 0 0 0 0 0 0 0 0
Neighs:    1118 ave 1118 max 1118 min
Histogram: 1 0 0 0 0 0 0 0 0 0

Total # of neighbors = 1118
Ave neighs/atom = 11.18
Ave special neighs/atom = 1.98
Neighbor list builds = 0
Dangerous builds = 0
unfix 1
unfix 2

pair_style    lj/cut/soft 1.0 1.0 1.5
pair_coeff    1 2 0.2 1.0 0.9820000000000008
pair_style    lj/cut/soft 1.0 1.0 1.5
pair_coeff    1 1 0.2 1.0 0.9820000000000008
pair_style    lj/cut/soft 1.0 1.0 1.5
pair_coeff    2 2 0.5 1.0 0.9820000000000008
velocity        all scale 1.0
fix             1 all nve/limit 1.5
fix             2 all langevin 1.0 1.0 1 52690
thermo_style    custom step temp press pe ke
thermo          100
run             100
Per MPI rank memory allocation (min/avg/max) = 5.555 | 5.555 | 5.555 Mbytes
Step Temp Press PotEng KinEng 
  111700            1  -0.01537133    20.408859        1.485 
  111800   0.99700214 -0.027985931    20.412411    1.4805482 
Loop time of 0.00169301 on 1 procs for 100 steps with 100 atoms

Performance: 25516678.327 tau/day, 59066.385 timesteps/s
99.9% CPU use with 1 MPI tasks x 1 OpenMP threads

MPI task timing breakdown:
Section |  min time  |  avg time  |  max time  |%varavg| %total
---------------------------------------------------------------
Pair    | 0.00056958 | 0.00056958 | 0.00056958 |   0.0 | 33.64
Bond    | 0.00018597 | 0.00018597 | 0.00018597 |   0.0 | 10.98
Neigh   | 0          | 0          | 0          |   0.0 |  0.00
Comm    | 0.00016832 | 0.00016832 | 0.00016832 |   0.0 |  9.94
Output  | 6.9141e-06 | 6.9141e-06 | 6.9141e-06 |   0.0 |  0.41
Modify  | 0.00071096 | 0.00071096 | 0.00071096 |   0.0 | 41.99
Other   |            | 5.126e-05  |            |       |  3.03

Nlocal:    100 ave 100 max 100 min
Histogram: 1 0 0 0 0 0 0 0 0 0
Nghost:    322 ave 322 max 322 min
Histogram: 1 0 0 0 0 0 0 0 0 0
Neighs:    1133 ave 1133 max 1133 min
Histogram: 1 0 0 0 0 0 0 0 0 0

Total # of neighbors = 1133
Ave neighs/atom = 11.33
Ave special neighs/atom = 1.98
Neighbor list builds = 0
Dangerous builds = 0
unfix 1
unfix 2

pair_style    lj/cut/soft 1.0 1.0 1.5
pair_coeff    1 2 0.2 1.0 0.9910000000000008
pair_style    lj/cut/soft 1.0 1.0 1.5
pair_coeff    1 1 0.2 1.0 0.9910000000000008
pair_style    lj/cut/soft 1.0 1.0 1.5
pair_coeff    2 2 0.5 1.0 0.9910000000000008
velocity        all scale 1.0
fix             1 all nve/limit 1.5
fix             2 all langevin 1.0 1.0 1 52690
thermo_style    custom step temp press pe ke
thermo          100
run             100
Per MPI rank memory allocation (min/avg/max) = 5.555 | 5.555 | 5.555 Mbytes
Step Temp Press PotEng KinEng 
  111800            1 -0.027930973    20.411402        1.485 
  111900    1.0149404 0.0036607854    20.386493    1.5071865 
Loop time of 0.00164008 on 1 procs for 100 steps with 100 atoms

Performance: 26340155.953 tau/day, 60972.583 timesteps/s
99.9% CPU use with 1 MPI tasks x 1 OpenMP threads

MPI task timing breakdown:
Section |  min time  |  avg time  |  max time  |%varavg| %total
---------------------------------------------------------------
Pair    | 0.00056791 | 0.00056791 | 0.00056791 |   0.0 | 34.63
Bond    | 0.00019288 | 0.00019288 | 0.00019288 |   0.0 | 11.76
Neigh   | 0          | 0          | 0          |   0.0 |  0.00
Comm    | 0.00015187 | 0.00015187 | 0.00015187 |   0.0 |  9.26
Output  | 5.9605e-06 | 5.9605e-06 | 5.9605e-06 |   0.0 |  0.36
Modify  | 0.0006609  | 0.0006609  | 0.0006609  |   0.0 | 40.30
Other   |            | 6.056e-05  |            |       |  3.69

Nlocal:    100 ave 100 max 100 min
Histogram: 1 0 0 0 0 0 0 0 0 0
Nghost:    330 ave 330 max 330 min
Histogram: 1 0 0 0 0 0 0 0 0 0
Neighs:    1110 ave 1110 max 1110 min
Histogram: 1 0 0 0 0 0 0 0 0 0

Total # of neighbors = 1110
Ave neighs/atom = 11.1
Ave special neighs/atom = 1.98
Neighbor list builds = 0
Dangerous builds = 0
unfix 1
unfix 2

pair_style    lj/cut/soft 1.0 1.0 1.5
pair_coeff    1 2 0.2 1.0 1.0000000000000007
pair_style    lj/cut/soft 1.0 1.0 1.5
pair_coeff    1 1 0.2 1.0 1.0000000000000007
pair_style    lj/cut/soft 1.0 1.0 1.5
pair_coeff    2 2 0.5 1.0 1.0000000000000007
velocity        all scale 1.0
fix             1 all nve/limit 1.5
fix             2 all langevin 1.0 1.0 1 52690
thermo_style    custom step temp press pe ke
thermo          100
run             100
Per MPI rank memory allocation (min/avg/max) = 5.555 | 5.555 | 5.555 Mbytes
Step Temp Press PotEng KinEng 
  111900            1 0.0034885978     20.38566        1.485 
  112000    0.9976058 -0.0059460125    20.513705    1.4814446 
Loop time of 0.00156903 on 1 procs for 100 steps with 100 atoms

Performance: 27532887.525 tau/day, 63733.536 timesteps/s
99.5% CPU use with 1 MPI tasks x 1 OpenMP threads

MPI task timing breakdown:
Section |  min time  |  avg time  |  max time  |%varavg| %total
---------------------------------------------------------------
Pair    | 0.00046945 | 0.00046945 | 0.00046945 |   0.0 | 29.92
Bond    | 0.00017929 | 0.00017929 | 0.00017929 |   0.0 | 11.43
Neigh   | 0          | 0          | 0          |   0.0 |  0.00
Comm    | 0.00019455 | 0.00019455 | 0.00019455 |   0.0 | 12.40
Output  | 1.812e-05  | 1.812e-05  | 1.812e-05  |   0.0 |  1.15
Modify  | 0.00064707 | 0.00064707 | 0.00064707 |   0.0 | 41.24
Other   |            | 6.056e-05  |            |       |  3.86

Nlocal:    100 ave 100 max 100 min
Histogram: 1 0 0 0 0 0 0 0 0 0
Nghost:    322 ave 322 max 322 min
Histogram: 1 0 0 0 0 0 0 0 0 0
Neighs:    1066 ave 1066 max 1066 min
Histogram: 1 0 0 0 0 0 0 0 0 0

Total # of neighbors = 1066
Ave neighs/atom = 10.66
Ave special neighs/atom = 1.98
Neighbor list builds = 0
Dangerous builds = 0
unfix 1
unfix 2

#---------------------------------------------------------------------------------------------------
# Minimize
#---------------------------------------------------------------------------------------------------
minimize 1.0e-5 1.0e-8 10000 10000
WARNING: Using 'neigh_modify every 1 delay 0 check yes' setting during minimization (src/min.cpp:168)
Per MPI rank memory allocation (min/avg/max) = 6.68 | 6.68 | 6.68 Mbytes
Step Temp Press PotEng KinEng 
  112000    0.9976058 -0.0059460125    20.513705    1.4814446 
  112008    0.9976058   0.01417973    19.904641    1.4814446 
Loop time of 0.000311852 on 1 procs for 8 steps with 100 atoms

98.4% CPU use with 1 MPI tasks x 1 OpenMP threads

Minimization stats:
  Stopping criterion = energy tolerance
  Energy initial, next-to-last, final = 
         20.5137050477      19.9047828249      19.9046414658
  Force two-norm initial, final = 431.58 15.9314
  Force max component initial, final = 90.1623 4.25085
  Final line search alpha, max atom move = 0.0068939 0.0293049
  Iterations, force evaluations = 8 16

MPI task timing breakdown:
Section |  min time  |  avg time  |  max time  |%varavg| %total
---------------------------------------------------------------
Pair    | 9.8705e-05 | 9.8705e-05 | 9.8705e-05 |   0.0 | 31.65
Bond    | 0.00012374 | 0.00012374 | 0.00012374 |   0.0 | 39.68
Neigh   | 0          | 0          | 0          |   0.0 |  0.00
Comm    | 2.265e-05  | 2.265e-05  | 2.265e-05  |   0.0 |  7.26
Output  | 0          | 0          | 0          |   0.0 |  0.00
Modify  | 0          | 0          | 0          |   0.0 |  0.00
Other   |            | 6.676e-05  |            |       | 21.41

Nlocal:    100 ave 100 max 100 min
Histogram: 1 0 0 0 0 0 0 0 0 0
Nghost:    313 ave 313 max 313 min
Histogram: 1 0 0 0 0 0 0 0 0 0
Neighs:    1069 ave 1069 max 1069 min
Histogram: 1 0 0 0 0 0 0 0 0 0

Total # of neighbors = 1069
Ave neighs/atom = 10.69
Ave special neighs/atom = 1.98
Neighbor list builds = 0
Dangerous builds = 0

#---------------------------------------------------------------------------------------------------
# EQUILIBRATION STAGE 2
#---------------------------------------------------------------------------------------------------
pair_style    lj/cut 1.5
pair_coeff    1 1 0.2 1.0
pair_style    lj/cut 3.0
pair_coeff    1 2 0.2 1.5
pair_style    lj/cut 3.5
pair_coeff    2 2 0.5 1.0

velocity        all scale 1.0
fix             1 all nve/limit 1.5
fix             2 all langevin 1.0 1.0 1 58841
thermo_style    custom step temp press pe ke
thermo          100
run             10000
Neighbor list info ...
  update every 10 steps, delay 10 steps, check yes
  max neighbors/atom: 10000, page size: 100000
  master list distance cutoff = 7.5
  ghost atom cutoff = 7.5
  binsize = 3.75, bins = 6 6 6
  1 neighbor lists, perpetual/occasional/extra = 1 0 0
  (1) pair lj/cut, perpetual
      attributes: half, newton on
      pair build: half/multi/newton
      stencil: half/multi/3d/newton
      bin: standard
Per MPI rank memory allocation (min/avg/max) = 5.798 | 5.798 | 5.798 Mbytes
Step Temp Press PotEng KinEng 
  112008            1   0.13168313    21.952423        1.485 
  112100    1.5237919 0.0040740773    20.180173     2.262831 
  112200    1.0478211 -0.0058235126    20.328862    1.5560143 
  112300    1.0648689 -0.018452233    20.419289    1.5813303 
  112400    1.0662398  -0.01272312    20.384687    1.5833661 
  112500    1.0906728 -0.011194094    20.254608     1.619649 
  112600     1.055243   0.01994404      20.2311    1.5670359 
  112700    1.0049745 0.0013320252    20.327538    1.4923872 
  112800    1.0471395  0.014783052    20.376681    1.5550022 
  112900    0.9755315 0.0096204191    20.265663    1.4486643 
  113000   0.92377231 -0.022226465    20.289227    1.3718019 
  113100    1.0157535 0.0017027719    20.375204     1.508394 
  113200    1.0123561 -0.0054478131    20.312079    1.5033487 
  113300   0.94594732 0.00071243531    20.293164    1.4047318 
  113400    1.0589975 -0.0046974476    20.308422    1.5726113 
  113500    1.0865589 0.0085246266    20.202593      1.61354 
  113600    1.0308183 -0.015419346    20.226329    1.5307651 
  113700   0.90006898 -0.018367982    20.257685    1.3366024 
  113800   0.89165474 -0.008978228     20.42745    1.3241073 
  113900   0.92110287  0.024433789    20.338434    1.3678378 
  114000    0.9471264 -0.005831832    20.243204    1.4064827 
  114100    1.0743407  0.002150083    20.248675     1.595396 
  114200   0.93395627 -0.016854007     20.50321    1.3869251 
  114300    1.1285603  0.014065559    20.316704    1.6759121 
  114400    1.1225783 -0.020407138    20.373348    1.6670288 
  114500   0.99762183 0.0024828826    20.353934    1.4814684 
  114600    1.0509666 0.0076135074    20.358823    1.5606854 
  114700    1.0660923 0.0095849807    20.384369     1.583147 
  114800     1.098378 0.0027975159     20.18216    1.6310913 
  114900   0.95793337 -0.0047515914    20.255473    1.4225311 
  115000   0.97181891  0.014434774    20.202584    1.4431511 
  115100   0.97918643 -0.0010703656    20.140459    1.4540918 
  115200   0.87804769 -0.0064916203     20.20427    1.3039008 
  115300   0.92230656  0.024657971    20.076694    1.3696252 
  115400   0.88340308 -0.031373182    20.261266    1.3118536 
  115500   0.83787623  0.011243771    20.267402    1.2442462 
  115600     1.067571 -0.0025135749    20.259389     1.585343 
  115700   0.92343776 -0.016067399    20.257397    1.3713051 
  115800   0.91578024 -0.020400612     20.10162    1.3599336 
  115900   0.94223811  0.027074598    20.171301    1.3992236 
  116000   0.94192571 -0.0022724882    20.252293    1.3987597 
  116100   0.96944121 0.0080637424    20.297113    1.4396202 
  116200   0.87045435 -0.0084657474    20.391534    1.2926247 
  116300     1.083937 1.3514061e-05    20.222281    1.6096464 
  116400   0.96816406  0.025603071    20.408634    1.4377236 
  116500    1.0372529 -0.00019779379    20.362306    1.5403206 
  116600   0.89681165 0.0049881509    20.150283    1.3317653 
  116700   0.92271301 -0.010205946    20.226603    1.3702288 
  116800   0.94980266 0.0095373506    20.420378    1.4104569 
  116900    1.0134515 -0.0094724926    20.114639    1.5049754 
  117000    1.2077048 -0.024128109    20.241378    1.7934416 
  117100   0.91279866    0.0127969    20.285469     1.355506 
  117200    1.0006738  0.020742723    20.279291    1.4860006 
  117300    1.0046487 0.0018687566    20.209792    1.4919034 
  117400   0.92185474  -0.01659371     20.30139    1.3689543 
  117500   0.89052274   -0.0223878    20.341088    1.3224263 
  117600    1.0049827 -0.017931007    20.339254    1.4923993 
  117700    1.0767505  0.012404743    20.204663    1.5989745 
  117800   0.97891533  0.020789029     20.33344    1.4536893 
  117900    1.0352484 -0.013052056    20.272775    1.5373439 
  118000   0.97817581 -0.013390602    20.211392    1.4525911 
  118100   0.90731556 -0.0072077836    20.342009    1.3473636 
  118200    0.9653497  0.014967331    20.223308    1.4335443 
  118300    1.0724925 -0.010409596     20.30457    1.5926513 
  118400   0.93186527 0.0056657241    20.351578    1.3838199 
  118500    1.0972237  0.034337309    20.103646    1.6293772 
  118600    1.1123476  0.015512133    20.162412    1.6518361 
  118700   0.80510449 -0.00099023127    20.143536    1.1955802 
  118800   0.92349378 -0.0084091566    20.095771    1.3713883 
  118900   0.99539537 -0.011466926    20.195864    1.4781621 
  119000    1.0220118  0.010598757    20.273008    1.5176876 
  119100     0.999563  0.023868138    20.338959     1.484351 
  119200    1.1945069 -0.0023531928     20.26536    1.7738428 
  119300    1.0538296  0.010743389    20.407553    1.5649369 
  119400     1.102952  0.026429743    20.356334    1.6378837 
  119500     1.188623  0.012218055    20.238293    1.7651052 
  119600    1.0354539 0.0062602063    20.417331     1.537649 
  119700    1.0006234 -0.0088324002    20.261919    1.4859257 
  119800    1.0481645 -0.014926265    20.171967    1.5565243 
  119900    1.1416517  0.011807304     20.22668    1.6953528 
  120000    1.0660907 -0.0018054962     20.18685    1.5831447 
  120100    0.9540237  0.022686584    20.316748    1.4167252 
  120200    1.1778975 0.0038192435    20.265145    1.7491778 
  120300    1.1002803 -0.0098309237    20.328914    1.6339162 
  120400    1.1641852 -0.0048194817    20.231892     1.728815 
  120500    1.1796982 0.0035734825    20.222018    1.7518518 
  120600   0.96588817  0.019282523    20.364234    1.4343439 
  120700    1.0204674 -0.017532226    20.263716     1.515394 
  120800   0.88077929 0.0031659408    20.248824    1.3079573 
  120900   0.96870562 0.00055965632    20.128208    1.4385278 
  121000   0.82245877 -0.017274196    20.267964    1.2213513 
  121100   0.87255389 -0.013793233    20.321155    1.2957425 
  121200    1.0504338 -0.0063459485    20.133002    1.5598942 
  121300     0.952566   0.01308034    20.220674    1.4145605 
  121400    1.0316147 -0.009928294    20.328767    1.5319479 
  121500   0.97971534 -0.017748552    20.351168    1.4548773 
  121600   0.98668472 -0.0020548587    20.292933    1.4652268 
  121700   0.78530581 -0.015181966    20.422952    1.1661791 
  121800   0.92291729 -0.0032602341    20.284004    1.3705322 
  121900    0.9021396 0.0036491895    20.392159    1.3396773 
  122000   0.96770588 0.0080299438    20.227858    1.4370432 
  122008   0.94759655 0.0017663654    20.338142    1.4071809 
Loop time of 0.216381 on 1 procs for 10000 steps with 100 atoms

Performance: 19964777.603 tau/day, 46214.763 timesteps/s
99.2% CPU use with 1 MPI tasks x 1 OpenMP threads

MPI task timing breakdown:
Section |  min time  |  avg time  |  max time  |%varavg| %total
---------------------------------------------------------------
Pair    | 0.11164    | 0.11164    | 0.11164    |   0.0 | 51.59
Bond    | 0.01761    | 0.01761    | 0.01761    |   0.0 |  8.14
Neigh   | 0.0037711  | 0.0037711  | 0.0037711  |   0.0 |  1.74
Comm    | 0.015965   | 0.015965   | 0.015965   |   0.0 |  7.38
Output  | 0.00094414 | 0.00094414 | 0.00094414 |   0.0 |  0.44
Modify  | 0.06086    | 0.06086    | 0.06086    |   0.0 | 28.13
Other   |            | 0.005591   |            |       |  2.58

Nlocal:    100 ave 100 max 100 min
Histogram: 1 0 0 0 0 0 0 0 0 0
Nghost:    395 ave 395 max 395 min
Histogram: 1 0 0 0 0 0 0 0 0 0
Neighs:    1906 ave 1906 max 1906 min
Histogram: 1 0 0 0 0 0 0 0 0 0

Total # of neighbors = 1906
Ave neighs/atom = 19.06
Ave special neighs/atom = 1.98
Neighbor list builds = 52
Dangerous builds = 0
unfix 1
unfix 2
write_restart   restart.int_settings.in.polylattice2

Please see the log.cite file for references relevant to this simulation

Total wall time: 0:00:03
